
     Program PWSCF v.6.7MaX starts on 30Sep2026 at 18:41:32 

     This program is part of the open-source Quantum ESPRESSO suite
     for quantum simulation of materials; please cite
         "P. Giannozzi et al., J. Phys.:Condens. Matter 21 395502 (2009);
         "P. Giannozzi et al., J. Phys.:Condens. Matter 29 465901 (2017);
          URL http://www.quantum-espresso.org", 
     in publications or presentations arising from this work. More details at
     http://www.quantum-espresso.org/quote

     Parallel version (MPI), running on     1 processors

     MPI processes distributed on     1 nodes
     Reading input from h2o_relax.in

     Current dimensions of program PWSCF are:
     Max number of different atomic species (ntypx) = 10
     Max number of k-points (npk) =  40000
     Max angular momentum in pseudopotentials (lmaxx) =  3
     file O.pz-rrkjus.UPF: wavefunction(s)  2S renormalized
     file H.pz-vbc.UPF: wavefunction(s)  1S renormalized

     gamma-point specific algorithms are used

     Subspace diagonalization in iterative solution of the eigenvalue problem:
     a serial algorithm will be used


     G-vector sticks info
     --------------------
     sticks:   dense  smooth     PW     G-vecs:    dense   smooth      PW
     Sum        3641    1813    441               164853    58077    7153



     bravais-lattice index     =            1
     lattice parameter (alat)  =      15.1178  a.u.
     unit-cell volume          =    3455.1411 (a.u.)^3
     number of atoms/cell      =            3
     number of atomic types    =            2
     number of electrons       =         8.00
     number of Kohn-Sham states=            4
     kinetic-energy cutoff     =      25.0000  Ry
     charge density cutoff     =     200.0000  Ry
     scf convergence threshold =      1.0E-08
     mixing beta               =       0.7000
     number of iterations used =            8  plain     mixing
     energy convergence thresh.=      1.0E-04
     force convergence thresh. =      1.0E-03
     Exchange-correlation= SLA  PZ   NOGX NOGC
                           (   1   1   0   0   0   0   0)
     nstep                     =           50


     celldm(1)=  15.117800  celldm(2)=   0.000000  celldm(3)=   0.000000
     celldm(4)=   0.000000  celldm(5)=   0.000000  celldm(6)=   0.000000

     crystal axes: (cart. coord. in units of alat)
               a(1) = (   1.000000   0.000000   0.000000 )  
               a(2) = (   0.000000   1.000000   0.000000 )  
               a(3) = (   0.000000   0.000000   1.000000 )  

     reciprocal axes: (cart. coord. in units 2 pi/alat)
               b(1) = (  1.000000  0.000000  0.000000 )  
               b(2) = (  0.000000  1.000000  0.000000 )  
               b(3) = (  0.000000  0.000000  1.000000 )  


     PseudoPot. # 1 for O  read from file:
     ../pseudo/O.pz-rrkjus.UPF
     MD5 check sum: c5abe3fd05217cb51bb0c605dcba6842
     Pseudo is Ultrasoft, Zval =  6.0
     Generated by new atomic code, or converted to UPF format
     Using radial grid of 1269 points,  4 beta functions with: 
                l(1) =   0
                l(2) =   0
                l(3) =   1
                l(4) =   1
     Q(r) pseudized with 0 coefficients 


     PseudoPot. # 2 for H  read from file:
     ../pseudo/H.pz-vbc.UPF
     MD5 check sum: 214a6b95916d88b641f101a50f552131
     Pseudo is Norm-conserving, Zval =  1.0
     Generated by new atomic code, or converted to UPF format
     Using radial grid of  131 points,  0 beta functions with: 

     atomic species   valence    mass     pseudopotential
        O              6.00    15.99900     O ( 1.00)
        H              1.00     1.00800     H ( 1.00)

      4 Sym. Ops. (no inversion) found



   Cartesian axes

     site n.     atom                  positions (alat units)
         1           O   tau(   1) = (   0.5000003   0.5000003   0.5150003  )
         2           H   tau(   2) = (   0.6023754   0.5000003   0.4432503  )
         3           H   tau(   3) = (   0.3976252   0.5000003   0.4432503  )

     number of k points=     1
                       cart. coord. in units 2pi/alat
        k(    1) = (   0.0000000   0.0000000   0.0000000), wk =   2.0000000

     Dense  grid:    82427 G-vectors     FFT dimensions: (  72,  72,  72)

     Smooth grid:    29039 G-vectors     FFT dimensions: (  50,  50,  50)

     Estimated max dynamical RAM per process >     119.30 MB

     Initial potential from superposition of free atoms

     starting charge    7.99995, renormalised to    8.00000

     negative rho (up, down):  3.005E-03 0.000E+00
     Starting wfcs are    6 randomized atomic wfcs

     total cpu time spent up to now is        0.3 secs

     Self-consistent Calculation

     iteration #  1     ecut=    25.00 Ry     beta= 0.70
     Davidson diagonalization with overlap
     ethr =  1.00E-02,  avg # of iterations =  2.0

     negative rho (up, down):  8.059E-04 0.000E+00

     total cpu time spent up to now is        0.5 secs

     total energy              =     -33.92439253 Ry
     estimated scf accuracy    <       0.49164253 Ry

     iteration #  2     ecut=    25.00 Ry     beta= 0.70
     Davidson diagonalization with overlap
     ethr =  6.15E-03,  avg # of iterations =  2.0

     negative rho (up, down):  1.103E-02 0.000E+00

     total cpu time spent up to now is        0.7 secs

     total energy              =     -34.06478593 Ry
     estimated scf accuracy    <       0.42276924 Ry

     iteration #  3     ecut=    25.00 Ry     beta= 0.70
     Davidson diagonalization with overlap
     ethr =  5.28E-03,  avg # of iterations =  2.0

     negative rho (up, down):  1.581E-03 0.000E+00

     total cpu time spent up to now is        0.8 secs

     total energy              =     -34.13180315 Ry
     estimated scf accuracy    <       0.00496036 Ry

     iteration #  4     ecut=    25.00 Ry     beta= 0.70
     Davidson diagonalization with overlap
     ethr =  6.20E-05,  avg # of iterations =  2.0

     negative rho (up, down):  1.976E-04 0.000E+00

     total cpu time spent up to now is        1.0 secs

     total energy              =     -34.13394051 Ry
     estimated scf accuracy    <       0.00291010 Ry

     iteration #  5     ecut=    25.00 Ry     beta= 0.70
     Davidson diagonalization with overlap
     ethr =  3.64E-05,  avg # of iterations =  1.0

     negative rho (up, down):  4.161E-04 0.000E+00

     total cpu time spent up to now is        1.2 secs

     total energy              =     -34.13399141 Ry
     estimated scf accuracy    <       0.00043257 Ry

     iteration #  6     ecut=    25.00 Ry     beta= 0.70
     Davidson diagonalization with overlap
     ethr =  5.41E-06,  avg # of iterations =  1.0

     negative rho (up, down):  1.142E-04 0.000E+00

     total cpu time spent up to now is        1.4 secs

     total energy              =     -34.13393643 Ry
     estimated scf accuracy    <       0.00014593 Ry

     iteration #  7     ecut=    25.00 Ry     beta= 0.70
     Davidson diagonalization with overlap
     ethr =  1.82E-06,  avg # of iterations =  2.0

     negative rho (up, down):  5.458E-05 0.000E+00

     total cpu time spent up to now is        1.6 secs

     total energy              =     -34.13398924 Ry
     estimated scf accuracy    <       0.00002931 Ry

     iteration #  8     ecut=    25.00 Ry     beta= 0.70
     Davidson diagonalization with overlap
     ethr =  3.66E-07,  avg # of iterations =  1.0

     negative rho (up, down):  5.220E-05 0.000E+00

     total cpu time spent up to now is        1.7 secs

     total energy              =     -34.13398601 Ry
     estimated scf accuracy    <       0.00000768 Ry

     iteration #  9     ecut=    25.00 Ry     beta= 0.70
     Davidson diagonalization with overlap
     ethr =  9.60E-08,  avg # of iterations =  2.0

     negative rho (up, down):  5.095E-05 0.000E+00

     total cpu time spent up to now is        1.9 secs

     total energy              =     -34.13398859 Ry
     estimated scf accuracy    <       0.00000100 Ry

     iteration # 10     ecut=    25.00 Ry     beta= 0.70
     Davidson diagonalization with overlap
     ethr =  1.26E-08,  avg # of iterations =  1.0

     negative rho (up, down):  5.093E-05 0.000E+00

     total cpu time spent up to now is        2.1 secs

     total energy              =     -34.13398861 Ry
     estimated scf accuracy    <       0.00000013 Ry

     iteration # 11     ecut=    25.00 Ry     beta= 0.70
     Davidson diagonalization with overlap
     ethr =  1.62E-09,  avg # of iterations =  2.0

     negative rho (up, down):  5.088E-05 0.000E+00

     total cpu time spent up to now is        2.3 secs

     End of self-consistent calculation

          k = 0.0000 0.0000 0.0000 (  3577 PWs)   bands (ev):

   -24.4876 -12.8272  -8.7255  -7.0199

     highest occupied level (ev):    -7.0199

!    total energy              =     -34.13398864 Ry
     estimated scf accuracy    <          7.8E-10 Ry

     The total energy is the sum of the following terms:
     one-electron contribution =     -57.65228026 Ry
     hartree contribution      =      30.25388643 Ry
     xc contribution           =      -8.13317588 Ry
     ewald contribution        =       1.39758107 Ry

     convergence has been achieved in  11 iterations

     Forces acting on atoms (cartesian axes, Ry/au):

     atom    1 type  1   force =     0.00000000    0.00000000   -0.02373946
     atom    2 type  2   force =    -0.03913278    0.00000000    0.01186973
     atom    3 type  2   force =     0.03913278    0.00000000    0.01186973

     Total force =     0.062515     Total SCF correction =     0.000015

     BFGS Geometry Optimization
     Energy error            =      0.0E+00
     Gradient error          =      3.9E-02

     number of scf cycles    =   1
     number of bfgs steps    =   0

     energy   new            =     -34.1339886386 Ry

     new trust radius        =       0.0408933407 bohr
     new conv_thr            =       0.0000000100 Ry


ATOMIC_POSITIONS (angstrom)
O             4.0000000000        4.0000000000        4.1074376162
H             4.7982918226        4.0000000000        3.5522811919
H             3.2017081774        4.0000000000        3.5522811919



     Writing output data file ./tmp_h2o/h2o.save/
     NEW-OLD atomic charge density approx. for the potential

     negative rho (up, down):  2.233E-03 0.000E+00

     total cpu time spent up to now is        2.5 secs

     Self-consistent Calculation

     iteration #  1     ecut=    25.00 Ry     beta= 0.70
     Davidson diagonalization with overlap
     ethr =  1.00E-06,  avg # of iterations =  5.0

     negative rho (up, down):  3.446E-04 0.000E+00

     total cpu time spent up to now is        2.7 secs

     total energy              =     -34.13494226 Ry
     estimated scf accuracy    <       0.00168521 Ry

     iteration #  2     ecut=    25.00 Ry     beta= 0.70
     Davidson diagonalization with overlap
     ethr =  2.11E-05,  avg # of iterations =  2.0

     negative rho (up, down):  3.717E-04 0.000E+00

     total cpu time spent up to now is        2.9 secs

     total energy              =     -34.13542887 Ry
     estimated scf accuracy    <       0.00121616 Ry

     iteration #  3     ecut=    25.00 Ry     beta= 0.70
     Davidson diagonalization with overlap
     ethr =  1.52E-05,  avg # of iterations =  2.0

     negative rho (up, down):  1.013E-04 0.000E+00

     total cpu time spent up to now is        3.1 secs

     total energy              =     -34.13563278 Ry
     estimated scf accuracy    <       0.00000539 Ry

     iteration #  4     ecut=    25.00 Ry     beta= 0.70
     Davidson diagonalization with overlap
     ethr =  6.74E-08,  avg # of iterations =  3.0

     negative rho (up, down):  5.623E-05 0.000E+00

     total cpu time spent up to now is        3.3 secs

     total energy              =     -34.13563748 Ry
     estimated scf accuracy    <       0.00000291 Ry

     iteration #  5     ecut=    25.00 Ry     beta= 0.70
     Davidson diagonalization with overlap
     ethr =  3.64E-08,  avg # of iterations =  2.0

     negative rho (up, down):  5.446E-05 0.000E+00

     total cpu time spent up to now is        3.5 secs

     total energy              =     -34.13563779 Ry
     estimated scf accuracy    <       0.00000009 Ry

     iteration #  6     ecut=    25.00 Ry     beta= 0.70
     Davidson diagonalization with overlap
     ethr =  1.14E-09,  avg # of iterations =  2.0

     negative rho (up, down):  5.432E-05 0.000E+00

     total cpu time spent up to now is        3.6 secs

     total energy              =     -34.13563783 Ry
     estimated scf accuracy    <       0.00000002 Ry

     iteration #  7     ecut=    25.00 Ry     beta= 0.70
     Davidson diagonalization with overlap
     ethr =  2.28E-10,  avg # of iterations =  2.0

     negative rho (up, down):  5.421E-05 0.000E+00

     total cpu time spent up to now is        3.8 secs

     End of self-consistent calculation

          k = 0.0000 0.0000 0.0000 (  3577 PWs)   bands (ev):

   -24.7742 -13.1089  -8.7541  -7.0882

     highest occupied level (ev):    -7.0882

!    total energy              =     -34.13563783 Ry
     estimated scf accuracy    <          9.8E-10 Ry

     The total energy is the sum of the following terms:
     one-electron contribution =     -58.27621940 Ry
     hartree contribution      =      30.54892312 Ry
     xc contribution           =      -8.18183234 Ry
     ewald contribution        =       1.77349079 Ry

     convergence has been achieved in   7 iterations

     Forces acting on atoms (cartesian axes, Ry/au):

     atom    1 type  1   force =     0.00000000    0.00000000    0.02439663
     atom    2 type  2   force =    -0.00145018    0.00000000   -0.01219832
     atom    3 type  2   force =     0.00145018    0.00000000   -0.01219832

     Total force =     0.029950     Total SCF correction =     0.000030
     Energy error            =      1.6E-03
     Gradient error          =      2.4E-02

     number of scf cycles    =   2
     number of bfgs steps    =   1

     energy   old            =     -34.1339886386 Ry
     energy   new            =     -34.1356378308 Ry

     CASE: energy  _new < energy  _old

     new trust radius        =       0.0172413807 bohr
     new conv_thr            =       0.0000000016 Ry


ATOMIC_POSITIONS (angstrom)
O             4.0000000000        4.0000000000        4.1165613619
H             4.7948537170        4.0000000000        3.5477193190
H             3.2051462830        4.0000000000        3.5477193190



     Writing output data file ./tmp_h2o/h2o.save/
     NEW-OLD atomic charge density approx. for the potential

     negative rho (up, down):  2.298E-04 0.000E+00

     total cpu time spent up to now is        4.0 secs

     Self-consistent Calculation

     iteration #  1     ecut=    25.00 Ry     beta= 0.70
     Davidson diagonalization with overlap
     ethr =  1.00E-06,  avg # of iterations =  3.0

     negative rho (up, down):  7.184E-05 0.000E+00

     total cpu time spent up to now is        4.2 secs

     total energy              =     -34.13609288 Ry
     estimated scf accuracy    <       0.00011915 Ry

     iteration #  2     ecut=    25.00 Ry     beta= 0.70
     Davidson diagonalization with overlap
     ethr =  1.49E-06,  avg # of iterations =  2.0

     negative rho (up, down):  8.737E-05 0.000E+00

     total cpu time spent up to now is        4.4 secs

     total energy              =     -34.13612530 Ry
     estimated scf accuracy    <       0.00008444 Ry

     iteration #  3     ecut=    25.00 Ry     beta= 0.70
     Davidson diagonalization with overlap
     ethr =  1.06E-06,  avg # of iterations =  2.0

     negative rho (up, down):  5.615E-05 0.000E+00

     total cpu time spent up to now is        4.6 secs

     total energy              =     -34.13613957 Ry
     estimated scf accuracy    <       0.00000062 Ry

     iteration #  4     ecut=    25.00 Ry     beta= 0.70
     Davidson diagonalization with overlap
     ethr =  7.70E-09,  avg # of iterations =  2.0

     negative rho (up, down):  5.373E-05 0.000E+00

     total cpu time spent up to now is        4.8 secs

     total energy              =     -34.13613988 Ry
     estimated scf accuracy    <       0.00000028 Ry

     iteration #  5     ecut=    25.00 Ry     beta= 0.70
     Davidson diagonalization with overlap
     ethr =  3.45E-09,  avg # of iterations =  2.0

     negative rho (up, down):  5.369E-05 0.000E+00

     total cpu time spent up to now is        4.9 secs

     total energy              =     -34.13613992 Ry
     estimated scf accuracy    <          4.9E-09 Ry

     iteration #  6     ecut=    25.00 Ry     beta= 0.70
     Davidson diagonalization with overlap
     ethr =  6.12E-11,  avg # of iterations =  2.0

     negative rho (up, down):  5.368E-05 0.000E+00

     total cpu time spent up to now is        5.1 secs

     End of self-consistent calculation

          k = 0.0000 0.0000 0.0000 (  3577 PWs)   bands (ev):

   -24.7493 -12.9928  -8.8165  -7.0831

     highest occupied level (ev):    -7.0831

!    total energy              =     -34.13613992 Ry
     estimated scf accuracy    <          3.5E-10 Ry

     The total energy is the sum of the following terms:
     one-electron contribution =     -58.16662195 Ry
     hartree contribution      =      30.49456894 Ry
     xc contribution           =      -8.17294160 Ry
     ewald contribution        =       1.70885469 Ry

     convergence has been achieved in   6 iterations

     Forces acting on atoms (cartesian axes, Ry/au):

     atom    1 type  1   force =     0.00000000    0.00000000    0.01064163
     atom    2 type  2   force =    -0.00572441    0.00000000   -0.00532082
     atom    3 type  2   force =     0.00572441    0.00000000   -0.00532082

     Total force =     0.015343     Total SCF correction =     0.000008
     Energy error            =      5.0E-04
     Gradient error          =      1.1E-02

     number of scf cycles    =   3
     number of bfgs steps    =   2

     energy   old            =     -34.1356378308 Ry
     energy   new            =     -34.1361399210 Ry

     CASE: energy  _new < energy  _old

     new trust radius        =       0.0189655188 bohr
     new conv_thr            =       0.0000000005 Ry


ATOMIC_POSITIONS (angstrom)
O             4.0000000000        4.0000000000        4.1265620705
H             4.7861519834        4.0000000000        3.5427189648
H             3.2138480166        4.0000000000        3.5427189648



     Writing output data file ./tmp_h2o/h2o.save/
     NEW-OLD atomic charge density approx. for the potential

     negative rho (up, down):  6.065E-04 0.000E+00

     total cpu time spent up to now is        5.3 secs

     Self-consistent Calculation

     iteration #  1     ecut=    25.00 Ry     beta= 0.70
     Davidson diagonalization with overlap
     ethr =  1.00E-06,  avg # of iterations =  4.0

     negative rho (up, down):  1.107E-04 0.000E+00

     total cpu time spent up to now is        5.5 secs

     total energy              =     -34.13644861 Ry
     estimated scf accuracy    <       0.00006828 Ry

     iteration #  2     ecut=    25.00 Ry     beta= 0.70
     Davidson diagonalization with overlap
     ethr =  8.53E-07,  avg # of iterations =  2.0

     negative rho (up, down):  7.480E-05 0.000E+00

     total cpu time spent up to now is        5.7 secs

     total energy              =     -34.13646049 Ry
     estimated scf accuracy    <       0.00002964 Ry

     iteration #  3     ecut=    25.00 Ry     beta= 0.70
     Davidson diagonalization with overlap
     ethr =  3.71E-07,  avg # of iterations =  2.0

     negative rho (up, down):  5.450E-05 0.000E+00

     total cpu time spent up to now is        5.9 secs

     total energy              =     -34.13646752 Ry
     estimated scf accuracy    <       0.00000142 Ry

     iteration #  4     ecut=    25.00 Ry     beta= 0.70
     Davidson diagonalization with overlap
     ethr =  1.77E-08,  avg # of iterations =  2.0

     negative rho (up, down):  5.392E-05 0.000E+00

     total cpu time spent up to now is        6.1 secs

     total energy              =     -34.13646759 Ry
     estimated scf accuracy    <       0.00000010 Ry

     iteration #  5     ecut=    25.00 Ry     beta= 0.70
     Davidson diagonalization with overlap
     ethr =  1.27E-09,  avg # of iterations =  2.0

     negative rho (up, down):  5.372E-05 0.000E+00

     total cpu time spent up to now is        6.2 secs

     total energy              =     -34.13646763 Ry
     estimated scf accuracy    <       0.00000001 Ry

     iteration #  6     ecut=    25.00 Ry     beta= 0.70
     Davidson diagonalization with overlap
     ethr =  1.41E-10,  avg # of iterations =  2.0

     negative rho (up, down):  5.370E-05 0.000E+00

     total cpu time spent up to now is        6.4 secs

     End of self-consistent calculation

          k = 0.0000 0.0000 0.0000 (  3577 PWs)   bands (ev):

   -24.7695 -12.8863  -8.9072  -7.0886

     highest occupied level (ev):    -7.0886

!    total energy              =     -34.13646763 Ry
     estimated scf accuracy    <          1.1E-10 Ry

     The total energy is the sum of the following terms:
     one-electron contribution =     -58.13427463 Ry
     hartree contribution      =      30.47557266 Ry
     xc contribution           =      -8.16991160 Ry
     ewald contribution        =       1.69214595 Ry

     convergence has been achieved in   6 iterations

     Forces acting on atoms (cartesian axes, Ry/au):

     atom    1 type  1   force =     0.00000000    0.00000000    0.00143289
     atom    2 type  2   force =    -0.00368919    0.00000000   -0.00071645
     atom    3 type  2   force =     0.00368919    0.00000000   -0.00071645

     Total force =     0.005505     Total SCF correction =     0.000008
     Energy error            =      3.3E-04
     Gradient error          =      3.7E-03

     number of scf cycles    =   4
     number of bfgs steps    =   3

     energy   old            =     -34.1361399210 Ry
     energy   new            =     -34.1364676279 Ry

     CASE: energy  _new < energy  _old

     new trust radius        =       0.0114805042 bohr
     new conv_thr            =       0.0000000003 Ry


ATOMIC_POSITIONS (angstrom)
O             4.0000000000        4.0000000000        4.1311059443
H             4.7805175699        4.0000000000        3.5404470279
H             3.2194824301        4.0000000000        3.5404470279



     Writing output data file ./tmp_h2o/h2o.save/
     NEW-OLD atomic charge density approx. for the potential

     negative rho (up, down):  2.826E-04 0.000E+00

     total cpu time spent up to now is        6.6 secs

     Self-consistent Calculation

     iteration #  1     ecut=    25.00 Ry     beta= 0.70
     Davidson diagonalization with overlap
     ethr =  1.00E-06,  avg # of iterations =  3.0

     negative rho (up, down):  7.646E-05 0.000E+00

     total cpu time spent up to now is        6.8 secs

     total energy              =     -34.13651507 Ry
     estimated scf accuracy    <       0.00001150 Ry

     iteration #  2     ecut=    25.00 Ry     beta= 0.70
     Davidson diagonalization with overlap
     ethr =  1.44E-07,  avg # of iterations =  2.0

     negative rho (up, down):  5.735E-05 0.000E+00

     total cpu time spent up to now is        7.0 secs

     total energy              =     -34.13651721 Ry
     estimated scf accuracy    <       0.00000323 Ry

     iteration #  3     ecut=    25.00 Ry     beta= 0.70
     Davidson diagonalization with overlap
     ethr =  4.04E-08,  avg # of iterations =  2.0

     negative rho (up, down):  5.460E-05 0.000E+00

     total cpu time spent up to now is        7.2 secs

     total energy              =     -34.13651808 Ry
     estimated scf accuracy    <       0.00000065 Ry

     iteration #  4     ecut=    25.00 Ry     beta= 0.70
     Davidson diagonalization with overlap
     ethr =  8.14E-09,  avg # of iterations =  2.0

     negative rho (up, down):  5.405E-05 0.000E+00

     total cpu time spent up to now is        7.3 secs

     total energy              =     -34.13651815 Ry
     estimated scf accuracy    <       0.00000002 Ry

     iteration #  5     ecut=    25.00 Ry     beta= 0.70
     Davidson diagonalization with overlap
     ethr =  2.45E-10,  avg # of iterations =  2.0

     negative rho (up, down):  5.390E-05 0.000E+00

     total cpu time spent up to now is        7.5 secs

     total energy              =     -34.13651816 Ry
     estimated scf accuracy    <          5.2E-09 Ry

     iteration #  6     ecut=    25.00 Ry     beta= 0.70
     Davidson diagonalization with overlap
     ethr =  6.46E-11,  avg # of iterations =  2.0

     negative rho (up, down):  5.389E-05 0.000E+00

     total cpu time spent up to now is        7.7 secs

     total energy              =     -34.13651816 Ry
     estimated scf accuracy    <          3.5E-10 Ry

     iteration #  7     ecut=    25.00 Ry     beta= 0.70
     Davidson diagonalization with overlap
     ethr =  4.34E-12,  avg # of iterations =  2.0

     negative rho (up, down):  5.389E-05 0.000E+00

     total cpu time spent up to now is        7.9 secs

     End of self-consistent calculation

          k = 0.0000 0.0000 0.0000 (  3577 PWs)   bands (ev):

   -24.7951 -12.8436  -8.9564  -7.0950

     highest occupied level (ev):    -7.0950

!    total energy              =     -34.13651816 Ry
     estimated scf accuracy    <          8.6E-13 Ry

     The total energy is the sum of the following terms:
     one-electron contribution =     -58.14858321 Ry
     hartree contribution      =      30.48048971 Ry
     xc contribution           =      -8.17076636 Ry
     ewald contribution        =       1.70234171 Ry

     convergence has been achieved in   7 iterations

     Forces acting on atoms (cartesian axes, Ry/au):

     atom    1 type  1   force =     0.00000000    0.00000000   -0.00079227
     atom    2 type  2   force =    -0.00057872    0.00000000    0.00039613
     atom    3 type  2   force =     0.00057872    0.00000000    0.00039613

     Total force =     0.001269     Total SCF correction =     0.000003
     Energy error            =      5.1E-05
     Gradient error          =      7.9E-04

     bfgs converged in   5 scf cycles and   4 bfgs steps
     (criteria: energy <  1.0E-04 Ry, force <  1.0E-03 Ry/Bohr)

     End of BFGS Geometry Optimization

     Final energy   =     -34.1365181625 Ry

     File ./tmp_h2o/h2o.bfgs deleted, as requested
Begin final coordinates

ATOMIC_POSITIONS (angstrom)
O             4.0000000000        4.0000000000        4.1311059443
H             4.7805175699        4.0000000000        3.5404470279
H             3.2194824301        4.0000000000        3.5404470279
End final coordinates



     Writing output data file ./tmp_h2o/h2o.save/

     init_run     :      0.22s CPU      0.27s WALL (       1 calls)
     electrons    :      4.78s CPU      6.62s WALL (       5 calls)
     update_pot   :      0.22s CPU      0.24s WALL (       4 calls)
     forces       :      0.46s CPU      0.54s WALL (       5 calls)

     Called by init_run:
     wfcinit      :      0.01s CPU      0.01s WALL (       1 calls)
     potinit      :      0.04s CPU      0.06s WALL (       1 calls)
     hinit0       :      0.12s CPU      0.12s WALL (       1 calls)

     Called by electrons:
     c_bands      :      0.76s CPU      0.77s WALL (      37 calls)
     sum_band     :      1.53s CPU      2.44s WALL (      37 calls)
     v_of_rho     :      0.79s CPU      0.98s WALL (      42 calls)
     newd         :      1.08s CPU      1.91s WALL (      42 calls)
     mix_rho      :      0.45s CPU      0.46s WALL (      37 calls)

     Called by c_bands:
     init_us_2    :      0.03s CPU      0.03s WALL (      75 calls)
     regterg      :      0.72s CPU      0.73s WALL (      37 calls)

     Called by *egterg:
     rdiaghg      :      0.00s CPU      0.00s WALL (     111 calls)
     h_psi        :      0.61s CPU      0.61s WALL (     116 calls)
     s_psi        :      0.02s CPU      0.02s WALL (     116 calls)
     g_psi        :      0.01s CPU      0.01s WALL (      78 calls)

     Called by h_psi:
     h_psi:calbec :      0.02s CPU      0.02s WALL (     116 calls)
     vloc_psi     :      0.56s CPU      0.57s WALL (     116 calls)
     add_vuspsi   :      0.02s CPU      0.02s WALL (     116 calls)

     General routines
     calbec       :      0.03s CPU      0.03s WALL (     173 calls)
     fft          :      1.03s CPU      1.04s WALL (     256 calls)
     ffts         :      0.12s CPU      0.12s WALL (      79 calls)
     fftw         :      0.48s CPU      0.48s WALL (     526 calls)
     interpolate  :      0.27s CPU      0.28s WALL (      42 calls)

     Parallel routines

     PWSCF        :      5.88s CPU      7.97s WALL


   This run was terminated on:  18:41:40  30Sep2026            

=------------------------------------------------------------------------------=
   JOB DONE.
=------------------------------------------------------------------------------=
