
     Program PWSCF v.6.7MaX starts on 30Sep2026 at 18:32:37 

     This program is part of the open-source Quantum ESPRESSO suite
     for quantum simulation of materials; please cite
         "P. Giannozzi et al., J. Phys.:Condens. Matter 21 395502 (2009);
         "P. Giannozzi et al., J. Phys.:Condens. Matter 29 465901 (2017);
          URL http://www.quantum-espresso.org", 
     in publications or presentations arising from this work. More details at
     http://www.quantum-espresso.org/quote

     Parallel version (MPI), running on     1 processors

     MPI processes distributed on     1 nodes
     Reading input from si_vc-relax.in

     Current dimensions of program PWSCF are:
     Max number of different atomic species (ntypx) = 10
     Max number of k-points (npk) =  40000
     Max angular momentum in pseudopotentials (lmaxx) =  3

     Subspace diagonalization in iterative solution of the eigenvalue problem:
     a serial algorithm will be used


     G-vector sticks info
     --------------------
     sticks:   dense  smooth     PW     G-vecs:    dense   smooth      PW
     Sum         313     313    109                 3839     3839     749



     bravais-lattice index     =            2
     lattice parameter (alat)  =       9.9000  a.u.
     unit-cell volume          =     242.5748 (a.u.)^3
     number of atoms/cell      =            2
     number of atomic types    =            1
     number of electrons       =         8.00
     number of Kohn-Sham states=            4
     kinetic-energy cutoff     =      24.0000  Ry
     charge density cutoff     =      96.0000  Ry
     scf convergence threshold =      1.0E-09
     mixing beta               =       0.7000
     number of iterations used =            8  plain     mixing
     energy convergence thresh.=      1.0E-04
     force convergence thresh. =      1.0E-04
     press convergence thresh. =      5.0E-01
     Exchange-correlation= SLA  PZ   NOGX NOGC
                           (   1   1   0   0   0   0   0)
     nstep                     =           50


     celldm(1)=   9.900000  celldm(2)=   0.000000  celldm(3)=   0.000000
     celldm(4)=   0.000000  celldm(5)=   0.000000  celldm(6)=   0.000000

     crystal axes: (cart. coord. in units of alat)
               a(1) = (  -0.500000   0.000000   0.500000 )  
               a(2) = (   0.000000   0.500000   0.500000 )  
               a(3) = (  -0.500000   0.500000   0.000000 )  

     reciprocal axes: (cart. coord. in units 2 pi/alat)
               b(1) = ( -1.000000 -1.000000  1.000000 )  
               b(2) = (  1.000000  1.000000  1.000000 )  
               b(3) = ( -1.000000  1.000000 -1.000000 )  


     PseudoPot. # 1 for Si read from file:
     ../pseudo/Si.pz-vbc.UPF
     MD5 check sum: a974d1b8727157e37210f3f86afb6210
     Pseudo is Norm-conserving, Zval =  4.0
     Generated by new atomic code, or converted to UPF format
     Using radial grid of  431 points,  2 beta functions with: 
                l(1) =   0
                l(2) =   1

     atomic species   valence    mass     pseudopotential
        Si             4.00    28.08550     Si( 1.00)

      2 Sym. Ops. (no inversion) found



   Cartesian axes

     site n.     atom                  positions (alat units)
         1           Si  tau(   1) = (   0.0000000   0.0000000   0.0000000  )
         2           Si  tau(   2) = (   0.2600000   0.2500000   0.2400000  )

     number of k points=   234

     Number of k-points >= 100: set verbosity='high' to print them.

     Dense  grid:     3839 G-vectors     FFT dimensions: (  24,  24,  24)

     Estimated max dynamical RAM per process >       9.77 MB

     Initial potential from superposition of free atoms

     starting charge    7.99901, renormalised to    8.00000
     Starting wfcs are    8 randomized atomic wfcs

     total cpu time spent up to now is        0.5 secs

     Self-consistent Calculation

     iteration #  1     ecut=    24.00 Ry     beta= 0.70
     Davidson diagonalization with overlap
     ethr =  1.00E-02,  avg # of iterations =  2.0

     Threshold (ethr) on eigenvalues was too large:
     Diagonalizing with lowered threshold

     Davidson diagonalization with overlap
     ethr =  8.10E-04,  avg # of iterations =  1.0

     total cpu time spent up to now is        1.8 secs

     total energy              =     -15.83490996 Ry
     estimated scf accuracy    <       0.07135262 Ry

     iteration #  2     ecut=    24.00 Ry     beta= 0.70
     Davidson diagonalization with overlap
     ethr =  8.92E-04,  avg # of iterations =  1.0

     total cpu time spent up to now is        2.3 secs

     total energy              =     -15.83923774 Ry
     estimated scf accuracy    <       0.00223006 Ry

     iteration #  3     ecut=    24.00 Ry     beta= 0.70
     Davidson diagonalization with overlap
     ethr =  2.79E-05,  avg # of iterations =  2.7

     total cpu time spent up to now is        3.0 secs

     total energy              =     -15.83986299 Ry
     estimated scf accuracy    <       0.00008907 Ry

     iteration #  4     ecut=    24.00 Ry     beta= 0.70
     Davidson diagonalization with overlap
     ethr =  1.11E-06,  avg # of iterations =  2.5

     total cpu time spent up to now is        3.8 secs

     total energy              =     -15.83988966 Ry
     estimated scf accuracy    <       0.00000390 Ry

     iteration #  5     ecut=    24.00 Ry     beta= 0.70
     Davidson diagonalization with overlap
     ethr =  4.87E-08,  avg # of iterations =  3.3

     total cpu time spent up to now is        4.7 secs

     total energy              =     -15.83989128 Ry
     estimated scf accuracy    <       0.00000011 Ry

     iteration #  6     ecut=    24.00 Ry     beta= 0.70
     Davidson diagonalization with overlap
     ethr =  1.43E-09,  avg # of iterations =  3.1

     total cpu time spent up to now is        5.5 secs

     total energy              =     -15.83989132 Ry
     estimated scf accuracy    <          2.3E-09 Ry

     iteration #  7     ecut=    24.00 Ry     beta= 0.70
     Davidson diagonalization with overlap
     ethr =  2.85E-11,  avg # of iterations =  3.7

     total cpu time spent up to now is        6.3 secs

     End of self-consistent calculation

     Number of k-points >= 100: set verbosity='high' to print the bands.

     highest occupied level (ev):     7.3782

!    total energy              =     -15.83989133 Ry
     estimated scf accuracy    <          5.9E-12 Ry

     The total energy is the sum of the following terms:
     one-electron contribution =       5.47730734 Ry
     hartree contribution      =       1.00581114 Ry
     xc contribution           =      -4.91655634 Ry
     ewald contribution        =     -17.40645347 Ry

     convergence has been achieved in   7 iterations

     Forces acting on atoms (cartesian axes, Ry/au):

     atom    1 type  1   force =     0.03248242    0.00487030   -0.03248242
     atom    2 type  1   force =    -0.03248242   -0.00487030    0.03248242

     Total force =     0.065329     Total SCF correction =     0.000000


     Computing stress (Cartesian axis) and pressure

          total   stress  (Ry/bohr**3)                   (kbar)     P=      103.91
   0.00070010   0.00021920  -0.00002136          102.99       32.25       -3.14
   0.00021920   0.00071893  -0.00021920           32.25      105.76      -32.25
  -0.00002136  -0.00021920   0.00070010           -3.14      -32.25      102.99


     BFGS Geometry Optimization
     Energy error            =      0.0E+00
     Gradient error          =      3.2E-02
     Cell gradient error     =      7.2E-04


     number of scf cycles    =   1
     number of bfgs steps    =   0

     enthalpy new            =     -15.8398913262 Ry

     new trust radius        =       0.0609690862 bohr
     new conv_thr            =       0.0000000010 Ry

     new unit-cell volume =    255.63933 a.u.^3 (    37.88184 Ang^3 )
     density =      2.46224 g/cm^3

CELL_PARAMETERS (alat=  9.90000000)
  -0.509018239  -0.005480101   0.509018239
   0.002473072   0.506246584   0.506011210
  -0.506011210   0.506246584  -0.002473072

ATOMIC_POSITIONS (alat)
Si            0.0033429272        0.0005367521       -0.0033429272
Si            0.2624496040        0.2540661674        0.2460346783



     Writing output data file ./tmp_si/si.save/
     NEW-OLD atomic charge density approx. for the potential
     extrapolated charge    8.40879, renormalised to    8.00000

     total cpu time spent up to now is        6.6 secs

     Self-consistent Calculation

     iteration #  1     ecut=    24.00 Ry     beta= 0.70
     Davidson diagonalization with overlap
     ethr =  1.00E-06,  avg # of iterations =  6.9

     total cpu time spent up to now is        8.2 secs

     total energy              =     -15.84706524 Ry
     estimated scf accuracy    <       0.00110525 Ry

     iteration #  2     ecut=    24.00 Ry     beta= 0.70
     Davidson diagonalization with overlap
     ethr =  1.38E-05,  avg # of iterations =  3.2

     total cpu time spent up to now is        9.0 secs

     total energy              =     -15.84890021 Ry
     estimated scf accuracy    <       0.00080069 Ry

     iteration #  3     ecut=    24.00 Ry     beta= 0.70
     Davidson diagonalization with overlap
     ethr =  1.00E-05,  avg # of iterations =  1.0

     total cpu time spent up to now is        9.5 secs

     total energy              =     -15.84880747 Ry
     estimated scf accuracy    <       0.00021649 Ry

     iteration #  4     ecut=    24.00 Ry     beta= 0.70
     Davidson diagonalization with overlap
     ethr =  2.71E-06,  avg # of iterations =  2.0

     total cpu time spent up to now is       10.2 secs

     total energy              =     -15.84883952 Ry
     estimated scf accuracy    <       0.00000319 Ry

     iteration #  5     ecut=    24.00 Ry     beta= 0.70
     Davidson diagonalization with overlap
     ethr =  3.98E-08,  avg # of iterations =  2.1

     total cpu time spent up to now is       10.8 secs

     total energy              =     -15.84883987 Ry
     estimated scf accuracy    <       0.00000030 Ry

     iteration #  6     ecut=    24.00 Ry     beta= 0.70
     Davidson diagonalization with overlap
     ethr =  3.72E-09,  avg # of iterations =  2.2

     total cpu time spent up to now is       11.5 secs

     total energy              =     -15.84883993 Ry
     estimated scf accuracy    <       0.00000003 Ry

     iteration #  7     ecut=    24.00 Ry     beta= 0.70
     Davidson diagonalization with overlap
     ethr =  3.41E-10,  avg # of iterations =  1.9

     total cpu time spent up to now is       12.1 secs

     total energy              =     -15.84883994 Ry
     estimated scf accuracy    <          1.4E-09 Ry

     iteration #  8     ecut=    24.00 Ry     beta= 0.70
     Davidson diagonalization with overlap
     ethr =  1.73E-11,  avg # of iterations =  2.9

     total cpu time spent up to now is       12.9 secs

     End of self-consistent calculation

     Number of k-points >= 100: set verbosity='high' to print the bands.

     highest occupied level (ev):     6.6275

!    total energy              =     -15.84883994 Ry
     estimated scf accuracy    <          3.5E-11 Ry

     The total energy is the sum of the following terms:
     one-electron contribution =       5.07250575 Ry
     hartree contribution      =       1.04667524 Ry
     xc contribution           =      -4.85702737 Ry
     ewald contribution        =     -17.11099356 Ry

     convergence has been achieved in   8 iterations

     Forces acting on atoms (cartesian axes, Ry/au):

     atom    1 type  1   force =     0.00546567   -0.00310453   -0.00546567
     atom    2 type  1   force =    -0.00546567    0.00310453    0.00546567

     Total force =     0.011780     Total SCF correction =     0.000000


     Computing stress (Cartesian axis) and pressure

          total   stress  (Ry/bohr**3)                   (kbar)     P=       36.59
   0.00024920  -0.00002702   0.00002549           36.66       -3.98        3.75
  -0.00002702   0.00024784   0.00002702           -3.98       36.46        3.98
   0.00002549   0.00002702   0.00024920            3.75        3.98       36.66

     Energy error            =      8.9E-03
     Gradient error          =      5.5E-03
     Cell gradient error     =      2.5E-04


     number of scf cycles    =   2
     number of bfgs steps    =   1

     enthalpy old            =     -15.8398913262 Ry
     enthalpy new            =     -15.8488399378 Ry

     CASE: enthalpy_new < enthalpy_old

     new trust radius        =       0.0303861656 bohr
     new conv_thr            =       0.0000000005 Ry

     new unit-cell volume =    262.93429 a.u.^3 (    38.96284 Ang^3 )
     density =      2.39393 g/cm^3

CELL_PARAMETERS (alat=  9.90000000)
  -0.513378487  -0.004736556   0.513378487
   0.002539521   0.511402008   0.511176939
  -0.511176939   0.511402008  -0.002539521

ATOMIC_POSITIONS (alat)
Si            0.0043079810        0.0001311464       -0.0043079810
Si            0.2640030858        0.2568487281        0.2497133739



     Writing output data file ./tmp_si/si.save/
     NEW-OLD atomic charge density approx. for the potential
     extrapolated charge    8.22193, renormalised to    8.00000

     total cpu time spent up to now is       13.2 secs

     Self-consistent Calculation

     iteration #  1     ecut=    24.00 Ry     beta= 0.70
     Davidson diagonalization with overlap
     ethr =  1.00E-06,  avg # of iterations =  4.5

     total cpu time spent up to now is       14.3 secs

     total energy              =     -15.84954651 Ry
     estimated scf accuracy    <       0.00025050 Ry

     iteration #  2     ecut=    24.00 Ry     beta= 0.70
     Davidson diagonalization with overlap
     ethr =  3.13E-06,  avg # of iterations =  3.6

     total cpu time spent up to now is       15.2 secs

     total energy              =     -15.85009283 Ry
     estimated scf accuracy    <       0.00024264 Ry

     iteration #  3     ecut=    24.00 Ry     beta= 0.70
     Davidson diagonalization with overlap
     ethr =  3.03E-06,  avg # of iterations =  1.0

     total cpu time spent up to now is       15.7 secs

     total energy              =     -15.85005845 Ry
     estimated scf accuracy    <       0.00007317 Ry

     iteration #  4     ecut=    24.00 Ry     beta= 0.70
     Davidson diagonalization with overlap
     ethr =  9.15E-07,  avg # of iterations =  2.0

     total cpu time spent up to now is       16.4 secs

     total energy              =     -15.85007060 Ry
     estimated scf accuracy    <       0.00000472 Ry

     iteration #  5     ecut=    24.00 Ry     beta= 0.70
     Davidson diagonalization with overlap
     ethr =  5.90E-08,  avg # of iterations =  1.1

     total cpu time spent up to now is       16.9 secs

     total energy              =     -15.85007074 Ry
     estimated scf accuracy    <       0.00000025 Ry

     iteration #  6     ecut=    24.00 Ry     beta= 0.70
     Davidson diagonalization with overlap
     ethr =  3.10E-09,  avg # of iterations =  2.3

     total cpu time spent up to now is       17.6 secs

     total energy              =     -15.85007081 Ry
     estimated scf accuracy    <          4.0E-09 Ry

     iteration #  7     ecut=    24.00 Ry     beta= 0.70
     Davidson diagonalization with overlap
     ethr =  4.94E-11,  avg # of iterations =  3.9

     total cpu time spent up to now is       18.4 secs

     End of self-consistent calculation

     Number of k-points >= 100: set verbosity='high' to print the bands.

     highest occupied level (ev):     6.2556

!    total energy              =     -15.85007081 Ry
     estimated scf accuracy    <          1.4E-10 Ry

     The total energy is the sum of the following terms:
     one-electron contribution =       4.85652028 Ry
     hartree contribution      =       1.07005818 Ry
     xc contribution           =      -4.82605174 Ry
     ewald contribution        =     -16.95059753 Ry

     convergence has been achieved in   7 iterations

     Forces acting on atoms (cartesian axes, Ry/au):

     atom    1 type  1   force =     0.00099846   -0.00015740   -0.00099846
     atom    2 type  1   force =    -0.00099846    0.00015740    0.00099846

     Total force =     0.002009     Total SCF correction =     0.000006


     Computing stress (Cartesian axis) and pressure

          total   stress  (Ry/bohr**3)                   (kbar)     P=        7.08
   0.00004895  -0.00004422  -0.00000228            7.20       -6.51       -0.33
  -0.00004422   0.00004652   0.00004422           -6.51        6.84        6.51
  -0.00000228   0.00004422   0.00004895           -0.33        6.51        7.20

     Energy error            =      1.2E-03
     Gradient error          =      1.0E-03
     Cell gradient error     =      4.9E-05


     number of scf cycles    =   3
     number of bfgs steps    =   2

     enthalpy old            =     -15.8488399378 Ry
     enthalpy new            =     -15.8500708094 Ry

     CASE: enthalpy_new < enthalpy_old

     new trust radius        =       0.0105736250 bohr
     new conv_thr            =            1.0E-10 Ry

     new unit-cell volume =    265.00243 a.u.^3 (    39.26931 Ang^3 )
     density =      2.37524 g/cm^3

CELL_PARAMETERS (alat=  9.90000000)
  -0.514741679  -0.003297299   0.514741679
   0.001807833   0.513438177   0.513246942
  -0.513246942   0.513438177  -0.001807833

ATOMIC_POSITIONS (alat)
Si            0.0045881102        0.0000778569       -0.0045881102
Si            0.2640597534        0.2575315025        0.2509950214



     Writing output data file ./tmp_si/si.save/
     NEW-OLD atomic charge density approx. for the potential
     extrapolated charge    8.06243, renormalised to    8.00000

     total cpu time spent up to now is       18.8 secs

     Self-consistent Calculation

     iteration #  1     ecut=    24.00 Ry     beta= 0.70
     Davidson diagonalization with overlap
     ethr =  1.00E-06,  avg # of iterations =  2.8

     total cpu time spent up to now is       19.5 secs

     total energy              =     -15.85013855 Ry
     estimated scf accuracy    <       0.00002325 Ry

     iteration #  2     ecut=    24.00 Ry     beta= 0.70
     Davidson diagonalization with overlap
     ethr =  2.91E-07,  avg # of iterations =  3.2

     total cpu time spent up to now is       20.4 secs

     total energy              =     -15.85018245 Ry
     estimated scf accuracy    <       0.00001819 Ry

     iteration #  3     ecut=    24.00 Ry     beta= 0.70
     Davidson diagonalization with overlap
     ethr =  2.27E-07,  avg # of iterations =  1.0

     total cpu time spent up to now is       20.9 secs

     total energy              =     -15.85018020 Ry
     estimated scf accuracy    <       0.00000506 Ry

     iteration #  4     ecut=    24.00 Ry     beta= 0.70
     Davidson diagonalization with overlap
     ethr =  6.33E-08,  avg # of iterations =  2.0

     total cpu time spent up to now is       21.6 secs

     total energy              =     -15.85018101 Ry
     estimated scf accuracy    <       0.00000018 Ry

     iteration #  5     ecut=    24.00 Ry     beta= 0.70
     Davidson diagonalization with overlap
     ethr =  2.25E-09,  avg # of iterations =  1.5

     total cpu time spent up to now is       22.1 secs

     total energy              =     -15.85018101 Ry
     estimated scf accuracy    <       0.00000003 Ry

     iteration #  6     ecut=    24.00 Ry     beta= 0.70
     Davidson diagonalization with overlap
     ethr =  3.32E-10,  avg # of iterations =  2.1

     total cpu time spent up to now is       22.8 secs

     total energy              =     -15.85018102 Ry
     estimated scf accuracy    <          2.7E-10 Ry

     iteration #  7     ecut=    24.00 Ry     beta= 0.70
     Davidson diagonalization with overlap
     ethr =  3.33E-12,  avg # of iterations =  3.9

     total cpu time spent up to now is       23.6 secs

     total energy              =     -15.85018102 Ry
     estimated scf accuracy    <          4.6E-10 Ry

     iteration #  8     ecut=    24.00 Ry     beta= 0.70
     Davidson diagonalization with overlap
     ethr =  3.33E-12,  avg # of iterations =  2.0

     total cpu time spent up to now is       24.4 secs

     End of self-consistent calculation

     Number of k-points >= 100: set verbosity='high' to print the bands.

     highest occupied level (ev):     6.1496

!    total energy              =     -15.85018102 Ry
     estimated scf accuracy    <          7.0E-13 Ry

     The total energy is the sum of the following terms:
     one-electron contribution =       4.79703701 Ry
     hartree contribution      =       1.07652957 Ry
     xc contribution           =      -4.81750573 Ry
     ewald contribution        =     -16.90624187 Ry

     convergence has been achieved in   8 iterations

     Forces acting on atoms (cartesian axes, Ry/au):

     atom    1 type  1   force =     0.00065094    0.00000739   -0.00065094
     atom    2 type  1   force =    -0.00065094   -0.00000739    0.00065094

     Total force =     0.001302     Total SCF correction =     0.000000


     Computing stress (Cartesian axis) and pressure

          total   stress  (Ry/bohr**3)                   (kbar)     P=       -0.57
  -0.00000310  -0.00003084  -0.00000309           -0.46       -4.54       -0.45
  -0.00003084  -0.00000537   0.00003084           -4.54       -0.79        4.54
  -0.00000309   0.00003084  -0.00000310           -0.45        4.54       -0.46

     Energy error            =      1.1E-04
     Gradient error          =      6.5E-04
     Cell gradient error     =      3.1E-05


     number of scf cycles    =   4
     number of bfgs steps    =   3

     enthalpy old            =     -15.8500708094 Ry
     enthalpy new            =     -15.8501810160 Ry

     CASE: enthalpy_new < enthalpy_old

     new trust radius        =       0.0062232347 bohr
     new conv_thr            =            1.1E-11 Ry

     new unit-cell volume =    265.47203 a.u.^3 (    39.33890 Ang^3 )
     density =      2.37104 g/cm^3

CELL_PARAMETERS (alat=  9.90000000)
  -0.515113006  -0.001963842   0.515113006
   0.001086135   0.514377642   0.514229706
  -0.514229706   0.514377642  -0.001086135

ATOMIC_POSITIONS (alat)
Si            0.0047697578        0.0000584929       -0.0047697578
Si            0.2636827816        0.2576605654        0.2516330595



     Writing output data file ./tmp_si/si.save/
     NEW-OLD atomic charge density approx. for the potential
     extrapolated charge    8.01415, renormalised to    8.00000

     total cpu time spent up to now is       24.7 secs

     Self-consistent Calculation

     iteration #  1     ecut=    24.00 Ry     beta= 0.70
     Davidson diagonalization with overlap
     ethr =  1.00E-06,  avg # of iterations =  2.2

     Threshold (ethr) on eigenvalues was too large:
     Diagonalizing with lowered threshold

     Davidson diagonalization with overlap
     ethr =  4.04E-08,  avg # of iterations =  3.1

     total cpu time spent up to now is       26.1 secs

     total energy              =     -15.85021143 Ry
     estimated scf accuracy    <       0.00000387 Ry

     iteration #  2     ecut=    24.00 Ry     beta= 0.70
     Davidson diagonalization with overlap
     ethr =  4.83E-08,  avg # of iterations =  2.8

     total cpu time spent up to now is       26.9 secs

     total energy              =     -15.85021417 Ry
     estimated scf accuracy    <       0.00000091 Ry

     iteration #  3     ecut=    24.00 Ry     beta= 0.70
     Davidson diagonalization with overlap
     ethr =  1.14E-08,  avg # of iterations =  1.1

     total cpu time spent up to now is       27.4 secs

     total energy              =     -15.85021414 Ry
     estimated scf accuracy    <       0.00000015 Ry

     iteration #  4     ecut=    24.00 Ry     beta= 0.70
     Davidson diagonalization with overlap
     ethr =  1.88E-09,  avg # of iterations =  2.0

     total cpu time spent up to now is       28.1 secs

     total energy              =     -15.85021416 Ry
     estimated scf accuracy    <          2.3E-09 Ry

     iteration #  5     ecut=    24.00 Ry     beta= 0.70
     Davidson diagonalization with overlap
     ethr =  2.82E-11,  avg # of iterations =  3.0

     total cpu time spent up to now is       28.8 secs

     total energy              =     -15.85021416 Ry
     estimated scf accuracy    <          1.2E-10 Ry

     iteration #  6     ecut=    24.00 Ry     beta= 0.70
     Davidson diagonalization with overlap
     ethr =  1.54E-12,  avg # of iterations =  3.0

     total cpu time spent up to now is       29.6 secs

     total energy              =     -15.85021416 Ry
     estimated scf accuracy    <          9.9E-11 Ry

     iteration #  7     ecut=    24.00 Ry     beta= 0.70
     Davidson diagonalization with overlap
     ethr =  1.23E-12,  avg # of iterations =  2.0

     total cpu time spent up to now is       30.2 secs

     End of self-consistent calculation

     Number of k-points >= 100: set verbosity='high' to print the bands.

     highest occupied level (ev):     6.1142

!    total energy              =     -15.85021416 Ry
     estimated scf accuracy    <          2.6E-13 Ry

     The total energy is the sum of the following terms:
     one-electron contribution =       4.78358990 Ry
     hartree contribution      =       1.07799357 Ry
     xc contribution           =      -4.81559008 Ry
     ewald contribution        =     -16.89620755 Ry

     convergence has been achieved in   7 iterations

     Forces acting on atoms (cartesian axes, Ry/au):

     atom    1 type  1   force =     0.00065581   -0.00005655   -0.00065581
     atom    2 type  1   force =    -0.00065581    0.00005655    0.00065581

     Total force =     0.001314     Total SCF correction =     0.000000


     Computing stress (Cartesian axis) and pressure

          total   stress  (Ry/bohr**3)                   (kbar)     P=       -2.26
  -0.00001474  -0.00001699  -0.00000172           -2.17       -2.50       -0.25
  -0.00001699  -0.00001658   0.00001699           -2.50       -2.44        2.50
  -0.00000172   0.00001699  -0.00001474           -0.25        2.50       -2.17

     Energy error            =      3.3E-05
     Gradient error          =      6.6E-04
     Cell gradient error     =      1.7E-05


     number of scf cycles    =   5
     number of bfgs steps    =   4

     enthalpy old            =     -15.8501810160 Ry
     enthalpy new            =     -15.8502141612 Ry

     CASE: enthalpy_new < enthalpy_old

     new trust radius        =       0.0070320510 bohr
     new conv_thr            =            1.0E-11 Ry

     new unit-cell volume =    265.35207 a.u.^3 (    39.32112 Ang^3 )
     density =      2.37211 g/cm^3

CELL_PARAMETERS (alat=  9.90000000)
  -0.515126431  -0.000400532   0.515126431
   0.000234431   0.515036329   0.514954466
  -0.514954466   0.515036329  -0.000234431

ATOMIC_POSITIONS (alat)
Si            0.0050093367        0.0000274733       -0.0050093367
Si            0.2629892393        0.2575988351        0.2521996575



     Writing output data file ./tmp_si/si.save/
     NEW-OLD atomic charge density approx. for the potential
     extrapolated charge    7.99638, renormalised to    8.00000

     total cpu time spent up to now is       30.5 secs

     Self-consistent Calculation

     iteration #  1     ecut=    24.00 Ry     beta= 0.70
     Davidson diagonalization with overlap
     ethr =  1.00E-06,  avg # of iterations =  2.4

     Threshold (ethr) on eigenvalues was too large:
     Diagonalizing with lowered threshold

     Davidson diagonalization with overlap
     ethr =  3.81E-08,  avg # of iterations =  3.2

     total cpu time spent up to now is       32.0 secs

     total energy              =     -15.85023556 Ry
     estimated scf accuracy    <       0.00000377 Ry

     iteration #  2     ecut=    24.00 Ry     beta= 0.70
     Davidson diagonalization with overlap
     ethr =  4.72E-08,  avg # of iterations =  2.0

     total cpu time spent up to now is       32.7 secs

     total energy              =     -15.85023639 Ry
     estimated scf accuracy    <       0.00000009 Ry

     iteration #  3     ecut=    24.00 Ry     beta= 0.70
     Davidson diagonalization with overlap
     ethr =  1.11E-09,  avg # of iterations =  2.4

     total cpu time spent up to now is       33.3 secs

     total energy              =     -15.85023640 Ry
     estimated scf accuracy    <       0.00000001 Ry

     iteration #  4     ecut=    24.00 Ry     beta= 0.70
     Davidson diagonalization with overlap
     ethr =  1.53E-10,  avg # of iterations =  2.1

     total cpu time spent up to now is       34.0 secs

     total energy              =     -15.85023640 Ry
     estimated scf accuracy    <          5.7E-10 Ry

     iteration #  5     ecut=    24.00 Ry     beta= 0.70
     Davidson diagonalization with overlap
     ethr =  7.18E-12,  avg # of iterations =  3.0

     total cpu time spent up to now is       34.8 secs

     total energy              =     -15.85023640 Ry
     estimated scf accuracy    <          1.3E-11 Ry

     iteration #  6     ecut=    24.00 Ry     beta= 0.70
     Davidson diagonalization with overlap
     ethr =  1.63E-13,  avg # of iterations =  3.7

     total cpu time spent up to now is       35.6 secs

     total energy              =     -15.85023640 Ry
     estimated scf accuracy    <          1.7E-11 Ry

     iteration #  7     ecut=    24.00 Ry     beta= 0.70
     Davidson diagonalization with overlap
     ethr =  1.63E-13,  avg # of iterations =  2.0

     total cpu time spent up to now is       36.4 secs

     End of self-consistent calculation

     Number of k-points >= 100: set verbosity='high' to print the bands.

     highest occupied level (ev):     6.0970

!    total energy              =     -15.85023640 Ry
     estimated scf accuracy    <          1.7E-13 Ry

     The total energy is the sum of the following terms:
     one-electron contribution =       4.78692328 Ry
     hartree contribution      =       1.07763994 Ry
     xc contribution           =      -4.81609813 Ry
     ewald contribution        =     -16.89870149 Ry

     convergence has been achieved in   7 iterations

     Forces acting on atoms (cartesian axes, Ry/au):

     atom    1 type  1   force =     0.00048153   -0.00008196   -0.00048153
     atom    2 type  1   force =    -0.00048153    0.00008196    0.00048153

     Total force =     0.000970     Total SCF correction =     0.000000


     Computing stress (Cartesian axis) and pressure

          total   stress  (Ry/bohr**3)                   (kbar)     P=       -1.82
  -0.00001200  -0.00000171  -0.00000022           -1.76       -0.25       -0.03
  -0.00000171  -0.00001304   0.00000171           -0.25       -1.92        0.25
  -0.00000022   0.00000171  -0.00001200           -0.03        0.25       -1.76

     Energy error            =      2.2E-05
     Gradient error          =      4.8E-04
     Cell gradient error     =      1.3E-05


     number of scf cycles    =   6
     number of bfgs steps    =   5

     enthalpy old            =     -15.8502141612 Ry
     enthalpy new            =     -15.8502364038 Ry

     CASE: enthalpy_new < enthalpy_old

     new trust radius        =       0.0025290147 bohr
     new conv_thr            =            1.0E-11 Ry

     new unit-cell volume =    265.01280 a.u.^3 (    39.27085 Ang^3 )
     density =      2.37515 g/cm^3

CELL_PARAMETERS (alat=  9.90000000)
  -0.514940090   0.000050434   0.514940090
  -0.000013410   0.515020131   0.514971205
  -0.514971205   0.515020131   0.000013410

ATOMIC_POSITIONS (alat)
Si            0.0051173130        0.0000097519       -0.0051173130
Si            0.2626492549        0.2574866964        0.2523085401



     Writing output data file ./tmp_si/si.save/
     NEW-OLD atomic charge density approx. for the potential
     extrapolated charge    7.98976, renormalised to    8.00000

     total cpu time spent up to now is       36.7 secs

     Self-consistent Calculation

     iteration #  1     ecut=    24.00 Ry     beta= 0.70
     Davidson diagonalization with overlap
     ethr =  1.00E-06,  avg # of iterations =  2.0

     Threshold (ethr) on eigenvalues was too large:
     Diagonalizing with lowered threshold

     Davidson diagonalization with overlap
     ethr =  9.92E-09,  avg # of iterations =  3.1

     total cpu time spent up to now is       38.2 secs

     total energy              =     -15.85023953 Ry
     estimated scf accuracy    <       0.00000087 Ry

     iteration #  2     ecut=    24.00 Ry     beta= 0.70
     Davidson diagonalization with overlap
     ethr =  1.09E-08,  avg # of iterations =  3.0

     total cpu time spent up to now is       39.1 secs

     total energy              =     -15.85024077 Ry
     estimated scf accuracy    <       0.00000050 Ry

     iteration #  3     ecut=    24.00 Ry     beta= 0.70
     Davidson diagonalization with overlap
     ethr =  6.19E-09,  avg # of iterations =  1.0

     total cpu time spent up to now is       39.6 secs

     total energy              =     -15.85024072 Ry
     estimated scf accuracy    <       0.00000012 Ry

     iteration #  4     ecut=    24.00 Ry     beta= 0.70
     Davidson diagonalization with overlap
     ethr =  1.52E-09,  avg # of iterations =  2.0

     total cpu time spent up to now is       40.3 secs

     total energy              =     -15.85024074 Ry
     estimated scf accuracy    <          2.3E-09 Ry

     iteration #  5     ecut=    24.00 Ry     beta= 0.70
     Davidson diagonalization with overlap
     ethr =  2.90E-11,  avg # of iterations =  1.9

     total cpu time spent up to now is       40.9 secs

     total energy              =     -15.85024074 Ry
     estimated scf accuracy    <          3.2E-10 Ry

     iteration #  6     ecut=    24.00 Ry     beta= 0.70
     Davidson diagonalization with overlap
     ethr =  3.97E-12,  avg # of iterations =  2.2

     total cpu time spent up to now is       41.6 secs

     total energy              =     -15.85024074 Ry
     estimated scf accuracy    <          5.8E-11 Ry

     iteration #  7     ecut=    24.00 Ry     beta= 0.70
     Davidson diagonalization with overlap
     ethr =  7.25E-13,  avg # of iterations =  1.7

     total cpu time spent up to now is       42.2 secs

     End of self-consistent calculation

     Number of k-points >= 100: set verbosity='high' to print the bands.

     highest occupied level (ev):     6.1016

!    total energy              =     -15.85024074 Ry
     estimated scf accuracy    <          1.4E-12 Ry

     The total energy is the sum of the following terms:
     one-electron contribution =       4.79656863 Ry
     hartree contribution      =       1.07659210 Ry
     xc contribution           =      -4.81749840 Ry
     ewald contribution        =     -16.90590306 Ry

     convergence has been achieved in   7 iterations

     Forces acting on atoms (cartesian axes, Ry/au):

     atom    1 type  1   force =     0.00020987   -0.00004324   -0.00020987
     atom    2 type  1   force =    -0.00020987    0.00004324    0.00020987

     Total force =     0.000424     Total SCF correction =     0.000000


     Computing stress (Cartesian axis) and pressure

          total   stress  (Ry/bohr**3)                   (kbar)     P=       -0.58
  -0.00000377   0.00000157   0.00000004           -0.55        0.23        0.01
   0.00000157  -0.00000438  -0.00000157            0.23       -0.64       -0.23
   0.00000004  -0.00000157  -0.00000377            0.01       -0.23       -0.55

     Energy error            =      4.3E-06
     Gradient error          =      2.1E-04
     Cell gradient error     =      4.4E-06


     number of scf cycles    =   7
     number of bfgs steps    =   6

     enthalpy old            =     -15.8502364038 Ry
     enthalpy new            =     -15.8502407379 Ry

     CASE: enthalpy_new < enthalpy_old

     new trust radius        =       0.0006700512 bohr
     new conv_thr            =            1.0E-11 Ry

     new unit-cell volume =    264.86276 a.u.^3 (    39.24861 Ang^3 )
     density =      2.37650 g/cm^3

CELL_PARAMETERS (alat=  9.90000000)
  -0.514849132   0.000041201   0.514849132
  -0.000010756   0.514909729   0.514873680
  -0.514873680   0.514909729   0.000010756

ATOMIC_POSITIONS (alat)
Si            0.0051457417        0.0000036023       -0.0051457417
Si            0.2625738773        0.2574401380        0.2522890471



     Writing output data file ./tmp_si/si.save/
     NEW-OLD atomic charge density approx. for the potential
     extrapolated charge    7.99547, renormalised to    8.00000

     total cpu time spent up to now is       42.5 secs

     Self-consistent Calculation

     iteration #  1     ecut=    24.00 Ry     beta= 0.70
     Davidson diagonalization with overlap
     ethr =  1.00E-06,  avg # of iterations =  1.1

     Threshold (ethr) on eigenvalues was too large:
     Diagonalizing with lowered threshold

     Davidson diagonalization with overlap
     ethr =  1.37E-09,  avg # of iterations =  2.9

     total cpu time spent up to now is       43.8 secs

     total energy              =     -15.85024100 Ry
     estimated scf accuracy    <       0.00000012 Ry

     iteration #  2     ecut=    24.00 Ry     beta= 0.70
     Davidson diagonalization with overlap
     ethr =  1.49E-09,  avg # of iterations =  3.2

     total cpu time spent up to now is       44.6 secs

     total energy              =     -15.85024123 Ry
     estimated scf accuracy    <       0.00000010 Ry

     iteration #  3     ecut=    24.00 Ry     beta= 0.70
     Davidson diagonalization with overlap
     ethr =  1.21E-09,  avg # of iterations =  1.0

     total cpu time spent up to now is       45.1 secs

     total energy              =     -15.85024121 Ry
     estimated scf accuracy    <       0.00000003 Ry

     iteration #  4     ecut=    24.00 Ry     beta= 0.70
     Davidson diagonalization with overlap
     ethr =  3.46E-10,  avg # of iterations =  2.0

     total cpu time spent up to now is       45.9 secs

     total energy              =     -15.85024122 Ry
     estimated scf accuracy    <          1.3E-09 Ry

     iteration #  5     ecut=    24.00 Ry     beta= 0.70
     Davidson diagonalization with overlap
     ethr =  1.68E-11,  avg # of iterations =  1.2

     total cpu time spent up to now is       46.4 secs

     total energy              =     -15.85024122 Ry
     estimated scf accuracy    <          1.1E-10 Ry

     iteration #  6     ecut=    24.00 Ry     beta= 0.70
     Davidson diagonalization with overlap
     ethr =  1.34E-12,  avg # of iterations =  2.3

     total cpu time spent up to now is       47.1 secs

     End of self-consistent calculation

     Number of k-points >= 100: set verbosity='high' to print the bands.

     highest occupied level (ev):     6.1059

!    total energy              =     -15.85024122 Ry
     estimated scf accuracy    <          6.6E-13 Ry

     The total energy is the sum of the following terms:
     one-electron contribution =       4.80084496 Ry
     hartree contribution      =       1.07612739 Ry
     xc contribution           =      -4.81811822 Ry
     ewald contribution        =     -16.90909535 Ry

     convergence has been achieved in   6 iterations

     Forces acting on atoms (cartesian axes, Ry/au):

     atom    1 type  1   force =     0.00004293   -0.00001220   -0.00004293
     atom    2 type  1   force =    -0.00004293    0.00001220    0.00004293

     Total force =     0.000088     Total SCF correction =     0.000000


     Computing stress (Cartesian axis) and pressure

          total   stress  (Ry/bohr**3)                   (kbar)     P=       -0.04
  -0.00000011   0.00000062  -0.00000008           -0.02        0.09       -0.01
   0.00000062  -0.00000055  -0.00000062            0.09       -0.08       -0.09
  -0.00000008  -0.00000062  -0.00000011           -0.01       -0.09       -0.02

     Energy error            =      4.8E-07
     Gradient error          =      4.3E-05
     Cell gradient error     =      6.2E-07


     bfgs converged in   8 scf cycles and   7 bfgs steps
     (criteria: energy <  1.0E-04 Ry, force <  1.0E-04Ry/Bohr, cell <  5.0E-01kbar)

     End of BFGS Geometry Optimization

     Final enthalpy =     -15.8502412180 Ry

     File ./tmp_si/si.bfgs deleted, as requested
Begin final coordinates
     new unit-cell volume =    264.86276 a.u.^3 (    39.24861 Ang^3 )
     density =      2.37650 g/cm^3

CELL_PARAMETERS (alat=  9.90000000)
  -0.514849132   0.000041201   0.514849132
  -0.000010756   0.514909729   0.514873680
  -0.514873680   0.514909729   0.000010756

ATOMIC_POSITIONS (alat)
Si            0.0051457417        0.0000036023       -0.0051457417
Si            0.2625738773        0.2574401380        0.2522890471
End final coordinates



     Writing output data file ./tmp_si/si.save/

     Final scf calculation at the relaxed structure.
     The G-vectors are recalculated for the final unit cell
     Results may differ from those at the preceding step.

     G-vector sticks info
     --------------------
     sticks:   dense  smooth     PW     G-vecs:    dense   smooth      PW
     Sum         349     349    121                 4279     4279     869



     bravais-lattice index     =            2
     lattice parameter (alat)  =       9.9000  a.u.
     unit-cell volume          =     264.8628 (a.u.)^3
     number of atoms/cell      =            2
     number of atomic types    =            1
     number of electrons       =         8.00
     number of Kohn-Sham states=            4
     kinetic-energy cutoff     =      24.0000  Ry
     charge density cutoff     =      96.0000  Ry
     scf convergence threshold =      1.0E-11
     mixing beta               =       0.7000
     number of iterations used =            8  plain     mixing
     press convergence thresh. =      5.0E-01
     Exchange-correlation= SLA  PZ   NOGX NOGC
                           (   1   1   0   0   0   0   0)

     celldm(1)=   9.900000  celldm(2)=   0.000000  celldm(3)=   0.000000
     celldm(4)=   0.000000  celldm(5)=   0.000000  celldm(6)=   0.000000

     crystal axes: (cart. coord. in units of alat)
               a(1) = (  -0.514849   0.000041   0.514849 )  
               a(2) = (  -0.000011   0.514910   0.514874 )  
               a(3) = (  -0.514874   0.514910   0.000011 )  

     reciprocal axes: (cart. coord. in units 2 pi/alat)
               b(1) = ( -0.971197 -0.971149  0.971197 )  
               b(2) = (  0.971171  0.971083  0.971093 )  
               b(3) = ( -0.971093  0.971083 -0.971171 )  


     PseudoPot. # 1 for Si read from file:
     ../pseudo/Si.pz-vbc.UPF
     MD5 check sum: a974d1b8727157e37210f3f86afb6210
     Pseudo is Norm-conserving, Zval =  4.0
     Generated by new atomic code, or converted to UPF format
     Using radial grid of  431 points,  2 beta functions with: 
                l(1) =   0
                l(2) =   1

     atomic species   valence    mass     pseudopotential
        Si             4.00    28.08550     Si( 1.00)

      2 Sym. Ops. (no inversion) found



   Cartesian axes

     site n.     atom                  positions (alat units)
         1           Si  tau(   1) = (   0.0051457   0.0000036  -0.0051457  )
         2           Si  tau(   2) = (   0.2625739   0.2574401   0.2522890  )

     number of k points=   234

     Number of k-points >= 100: set verbosity='high' to print them.

     Dense  grid:     4279 G-vectors     FFT dimensions: (  24,  24,  24)

     Estimated max dynamical RAM per process >      10.63 MB

     Initial potential from superposition of free atoms

     starting charge    7.99901, renormalised to    8.00000
     Starting wfcs are    8 randomized atomic wfcs

     total cpu time spent up to now is       48.0 secs

     Self-consistent Calculation

     iteration #  1     ecut=    24.00 Ry     beta= 0.70
     Davidson diagonalization with overlap
     ethr =  1.00E-06,  avg # of iterations =  8.0

     total cpu time spent up to now is       49.8 secs

     total energy              =     -15.84715375 Ry
     estimated scf accuracy    <       0.06296521 Ry

     iteration #  2     ecut=    24.00 Ry     beta= 0.70
     Davidson diagonalization with overlap
     ethr =  7.87E-04,  avg # of iterations =  1.0

     total cpu time spent up to now is       50.3 secs

     total energy              =     -15.85049136 Ry
     estimated scf accuracy    <       0.00209709 Ry

     iteration #  3     ecut=    24.00 Ry     beta= 0.70
     Davidson diagonalization with overlap
     ethr =  2.62E-05,  avg # of iterations =  2.2

     total cpu time spent up to now is       51.0 secs

     total energy              =     -15.85097879 Ry
     estimated scf accuracy    <       0.00005229 Ry

     iteration #  4     ecut=    24.00 Ry     beta= 0.70
     Davidson diagonalization with overlap
     ethr =  6.54E-07,  avg # of iterations =  3.3

     total cpu time spent up to now is       51.9 secs

     total energy              =     -15.85100356 Ry
     estimated scf accuracy    <       0.00000041 Ry

     iteration #  5     ecut=    24.00 Ry     beta= 0.70
     Davidson diagonalization with overlap
     ethr =  5.09E-09,  avg # of iterations =  4.6

     total cpu time spent up to now is       52.9 secs

     total energy              =     -15.85100424 Ry
     estimated scf accuracy    <       0.00000003 Ry

     iteration #  6     ecut=    24.00 Ry     beta= 0.70
     Davidson diagonalization with overlap
     ethr =  3.34E-10,  avg # of iterations =  2.4

     total cpu time spent up to now is       53.5 secs

     total energy              =     -15.85100424 Ry
     estimated scf accuracy    <          2.5E-10 Ry

     iteration #  7     ecut=    24.00 Ry     beta= 0.70
     Davidson diagonalization with overlap
     ethr =  3.11E-12,  avg # of iterations =  3.8

     total cpu time spent up to now is       54.5 secs

     total energy              =     -15.85100424 Ry
     estimated scf accuracy    <          1.2E-11 Ry

     iteration #  8     ecut=    24.00 Ry     beta= 0.70
     Davidson diagonalization with overlap
     ethr =  1.55E-13,  avg # of iterations =  2.9

     total cpu time spent up to now is       55.3 secs

     End of self-consistent calculation

     Number of k-points >= 100: set verbosity='high' to print the bands.

     highest occupied level (ev):     6.1047

!    total energy              =     -15.85100424 Ry
     estimated scf accuracy    <          1.4E-12 Ry

     The total energy is the sum of the following terms:
     one-electron contribution =       4.80008921 Ry
     hartree contribution      =       1.07635727 Ry
     xc contribution           =      -4.81835541 Ry
     ewald contribution        =     -16.90909532 Ry

     convergence has been achieved in   8 iterations

     Forces acting on atoms (cartesian axes, Ry/au):

     atom    1 type  1   force =     0.00004298   -0.00001213   -0.00004298
     atom    2 type  1   force =    -0.00004298    0.00001213    0.00004298

     Total force =     0.000088     Total SCF correction =     0.000000


     Computing stress (Cartesian axis) and pressure

          total   stress  (Ry/bohr**3)                   (kbar)     P=        1.07
   0.00000744   0.00000061  -0.00000008            1.09        0.09       -0.01
   0.00000061   0.00000700  -0.00000061            0.09        1.03       -0.09
  -0.00000008  -0.00000061   0.00000744           -0.01       -0.09        1.09


     Writing output data file ./tmp_si/si.save/

     init_run     :      1.05s CPU      1.07s WALL (       2 calls)
     electrons    :     50.82s CPU     51.66s WALL (       9 calls)
     update_pot   :      0.26s CPU      0.27s WALL (       7 calls)
     forces       :      0.51s CPU      0.52s WALL (       9 calls)
     stress       :      1.89s CPU      1.92s WALL (       9 calls)

     Called by init_run:
     wfcinit      :      0.93s CPU      0.95s WALL (       2 calls)
     potinit      :      0.03s CPU      0.03s WALL (       2 calls)
     hinit0       :      0.06s CPU      0.06s WALL (       2 calls)

     Called by electrons:
     c_bands      :     44.27s CPU     45.05s WALL (      70 calls)
     sum_band     :      6.45s CPU      6.51s WALL (      70 calls)
     v_of_rho     :      0.05s CPU      0.05s WALL (      74 calls)
     mix_rho      :      0.04s CPU      0.04s WALL (      70 calls)

     Called by c_bands:
     init_us_2    :      1.77s CPU      1.80s WALL (   37440 calls)
     cegterg      :     42.42s CPU     43.17s WALL (   16380 calls)

     Called by *egterg:
     cdiaghg      :      1.01s CPU      1.03s WALL (   55090 calls)
     h_psi        :     36.50s CPU     37.14s WALL (   58366 calls)
     g_psi        :      0.65s CPU      0.67s WALL (   41518 calls)

     Called by h_psi:
     h_psi:calbec :      1.18s CPU      1.20s WALL (   58366 calls)
     vloc_psi     :     33.84s CPU     34.44s WALL (   58366 calls)
     add_vuspsi   :      1.20s CPU      1.22s WALL (   58366 calls)

     General routines
     calbec       :      1.38s CPU      1.41s WALL (   68896 calls)
     fft          :      0.04s CPU      0.04s WALL (     270 calls)
     ffts         :      0.01s CPU      0.01s WALL (      70 calls)
     fftw         :     32.89s CPU     33.44s WALL (  471522 calls)

     Parallel routines

     PWSCF        :     54.66s CPU     55.61s WALL


   This run was terminated on:  18:33:32  30Sep2026            

=------------------------------------------------------------------------------=
   JOB DONE.
=------------------------------------------------------------------------------=
