
     Program PWSCF v.6.7MaX starts on 30Sep2026 at 18:33:36 

     This program is part of the open-source Quantum ESPRESSO suite
     for quantum simulation of materials; please cite
         "P. Giannozzi et al., J. Phys.:Condens. Matter 21 395502 (2009);
         "P. Giannozzi et al., J. Phys.:Condens. Matter 29 465901 (2017);
          URL http://www.quantum-espresso.org", 
     in publications or presentations arising from this work. More details at
     http://www.quantum-espresso.org/quote

     Parallel version (MPI), running on     1 processors

     MPI processes distributed on     1 nodes
     Reading input from tio2_rutile_vc-relax.in

     Current dimensions of program PWSCF are:
     Max number of different atomic species (ntypx) = 10
     Max number of k-points (npk) =  40000
     Max angular momentum in pseudopotentials (lmaxx) =  3

     Subspace diagonalization in iterative solution of the eigenvalue problem:
     a serial algorithm will be used

     Message from routine setup:
     using ibrav=0 with symmetry is DISCOURAGED, use correct ibrav instead

     G-vector sticks info
     --------------------
     sticks:   dense  smooth     PW     G-vecs:    dense   smooth      PW
     Sum        1225     609    193                20745     7329    1307



     bravais-lattice index     =            0
     lattice parameter (alat)  =       8.7872  a.u.
     unit-cell volume          =     434.8293 (a.u.)^3
     number of atoms/cell      =            6
     number of atomic types    =            2
     number of electrons       =        48.00
     number of Kohn-Sham states=           24
     kinetic-energy cutoff     =      25.0000  Ry
     charge density cutoff     =     200.0000  Ry
     scf convergence threshold =      1.0E-08
     mixing beta               =       0.5000
     number of iterations used =            8  plain     mixing
     energy convergence thresh.=      1.0E-05
     force convergence thresh. =      1.0E-03
     press convergence thresh. =      5.0E-01
     Exchange-correlation= SLA  PZ   NOGX NOGC
                           (   1   1   0   0   0   0   0)
     nstep                     =           50


     celldm(1)=   8.787226  celldm(2)=   0.000000  celldm(3)=   0.000000
     celldm(4)=   0.000000  celldm(5)=   0.000000  celldm(6)=   0.000000

     crystal axes: (cart. coord. in units of alat)
               a(1) = (   1.000000   0.000000   0.000000 )  
               a(2) = (   0.000000   1.000000   0.000000 )  
               a(3) = (   0.000000   0.000000   0.640860 )  

     reciprocal axes: (cart. coord. in units 2 pi/alat)
               b(1) = (  1.000000  0.000000  0.000000 )  
               b(2) = (  0.000000  1.000000  0.000000 )  
               b(3) = (  0.000000  0.000000  1.560403 )  


     PseudoPot. # 1 for Ti read from file:
     ../pseudo/Ti.pz-sp-van_ak.UPF
     MD5 check sum: 7ddca99569c339adc469bfdf6fc17fa5
     Pseudo is Ultrasoft, Zval = 12.0
     Generated by new atomic code, or converted to UPF format
     Using radial grid of  851 points,  6 beta functions with: 
                l(1) =   0
                l(2) =   0
                l(3) =   1
                l(4) =   1
                l(5) =   2
                l(6) =   2
     Q(r) pseudized with  8 coefficients,  rinner =    1.000   1.000   1.000
                                                       1.000   1.000

     PseudoPot. # 2 for O  read from file:
     ../pseudo/O.pz-van_ak.UPF
     MD5 check sum: 97949a9452a8f4f33f872c7ca5f0ab16
     Pseudo is Ultrasoft, Zval =  6.0
     Generated by new atomic code, or converted to UPF format
     Using radial grid of  737 points,  4 beta functions with: 
                l(1) =   0
                l(2) =   0
                l(3) =   1
                l(4) =   1
     Q(r) pseudized with  8 coefficients,  rinner =    0.800   0.800   0.800


     atomic species   valence    mass     pseudopotential
        Ti            12.00    47.86700     Ti( 1.00)
        O              6.00    15.99900     O ( 1.00)

     16 Sym. Ops., with inversion, found ( 8 have fractional translation)



   Cartesian axes

     site n.     atom                  positions (alat units)
         1           Ti  tau(   1) = (   0.0000000   0.0000000   0.0000000  )
         2           Ti  tau(   2) = (   0.5000000   0.5000000   0.3204301  )
         3           O   tau(   3) = (   0.3000000   0.3000000   0.0000000  )
         4           O   tau(   4) = (   0.7000000   0.7000000   0.0000000  )
         5           O   tau(   5) = (   0.8000000   0.2000000   0.3204301  )
         6           O   tau(   6) = (   0.2000000   0.8000000   0.3204301  )

     number of k points=     9
                       cart. coord. in units 2pi/alat
        k(    1) = (   0.0000000   0.0000000   0.0000000), wk =   0.0555556
        k(    2) = (   0.0000000   0.0000000   0.3901007), wk =   0.1111111
        k(    3) = (   0.0000000   0.0000000  -0.7802013), wk =   0.0555556
        k(    4) = (   0.0000000   0.3333333   0.0000000), wk =   0.2222222
        k(    5) = (   0.0000000   0.3333333   0.3901007), wk =   0.4444444
        k(    6) = (   0.0000000   0.3333333  -0.7802013), wk =   0.2222222
        k(    7) = (   0.3333333   0.3333333   0.0000000), wk =   0.2222222
        k(    8) = (   0.3333333   0.3333333   0.3901007), wk =   0.4444444
        k(    9) = (   0.3333333   0.3333333  -0.7802013), wk =   0.2222222

     Dense  grid:    20745 G-vectors     FFT dimensions: (  40,  40,  30)

     Smooth grid:     7329 G-vectors     FFT dimensions: (  30,  30,  18)

     Estimated max dynamical RAM per process >      84.94 MB

     Initial potential from superposition of free atoms

     starting charge   45.99992, renormalised to   48.00000
     Starting wfcs are   36 randomized atomic wfcs

     total cpu time spent up to now is        1.3 secs

     Self-consistent Calculation

     iteration #  1     ecut=    25.00 Ry     beta= 0.50
     Davidson diagonalization with overlap
     ethr =  1.00E-02,  avg # of iterations =  2.0

     total cpu time spent up to now is        2.0 secs

     total energy              =    -361.66288675 Ry
     estimated scf accuracy    <       1.23210520 Ry

     iteration #  2     ecut=    25.00 Ry     beta= 0.50
     Davidson diagonalization with overlap
     ethr =  2.57E-03,  avg # of iterations =  6.4

     total cpu time spent up to now is        3.0 secs

     total energy              =    -361.57092384 Ry
     estimated scf accuracy    <       4.05584369 Ry

     iteration #  3     ecut=    25.00 Ry     beta= 0.50
     Davidson diagonalization with overlap
     ethr =  2.57E-03,  avg # of iterations =  4.2

     total cpu time spent up to now is        3.9 secs

     total energy              =    -362.20231756 Ry
     estimated scf accuracy    <       0.05528294 Ry

     iteration #  4     ecut=    25.00 Ry     beta= 0.50
     Davidson diagonalization with overlap
     ethr =  1.15E-04,  avg # of iterations =  3.4

     total cpu time spent up to now is        4.7 secs

     total energy              =    -362.21186854 Ry
     estimated scf accuracy    <       0.01424104 Ry

     iteration #  5     ecut=    25.00 Ry     beta= 0.50
     Davidson diagonalization with overlap
     ethr =  2.97E-05,  avg # of iterations =  4.2

     total cpu time spent up to now is        5.4 secs

     total energy              =    -362.21604788 Ry
     estimated scf accuracy    <       0.00086454 Ry

     iteration #  6     ecut=    25.00 Ry     beta= 0.50
     Davidson diagonalization with overlap
     c_bands:  1 eigenvalues not converged
     ethr =  1.80E-06,  avg # of iterations =  5.8

     total cpu time spent up to now is        6.2 secs

     total energy              =    -362.22334569 Ry
     estimated scf accuracy    <       0.00061132 Ry

     iteration #  7     ecut=    25.00 Ry     beta= 0.50
     Davidson diagonalization with overlap
     ethr =  1.27E-06,  avg # of iterations =  1.0

     total cpu time spent up to now is        6.7 secs

     total energy              =    -362.22310363 Ry
     estimated scf accuracy    <       0.00051474 Ry

     iteration #  8     ecut=    25.00 Ry     beta= 0.50
     Davidson diagonalization with overlap
     ethr =  1.07E-06,  avg # of iterations =  4.6

     total cpu time spent up to now is        7.6 secs

     total energy              =    -362.22326777 Ry
     estimated scf accuracy    <       0.00014604 Ry

     iteration #  9     ecut=    25.00 Ry     beta= 0.50
     Davidson diagonalization with overlap
     ethr =  3.04E-07,  avg # of iterations =  1.1

     total cpu time spent up to now is        8.1 secs

     total energy              =    -362.22326049 Ry
     estimated scf accuracy    <       0.00008354 Ry

     iteration # 10     ecut=    25.00 Ry     beta= 0.50
     Davidson diagonalization with overlap
     ethr =  1.74E-07,  avg # of iterations =  2.0

     total cpu time spent up to now is        8.8 secs

     total energy              =    -362.22325457 Ry
     estimated scf accuracy    <       0.00003279 Ry

     iteration # 11     ecut=    25.00 Ry     beta= 0.50
     Davidson diagonalization with overlap
     ethr =  6.83E-08,  avg # of iterations =  4.2

     total cpu time spent up to now is        9.5 secs

     total energy              =    -362.22326303 Ry
     estimated scf accuracy    <       0.00000080 Ry

     iteration # 12     ecut=    25.00 Ry     beta= 0.50
     Davidson diagonalization with overlap
     ethr =  1.67E-09,  avg # of iterations =  5.7

     total cpu time spent up to now is       10.4 secs

     total energy              =    -362.22326306 Ry
     estimated scf accuracy    <       0.00000259 Ry

     iteration # 13     ecut=    25.00 Ry     beta= 0.50
     Davidson diagonalization with overlap
     ethr =  1.67E-09,  avg # of iterations =  2.4

     total cpu time spent up to now is       11.0 secs

     total energy              =    -362.22326249 Ry
     estimated scf accuracy    <       0.00000127 Ry

     iteration # 14     ecut=    25.00 Ry     beta= 0.50
     Davidson diagonalization with overlap
     ethr =  1.67E-09,  avg # of iterations =  5.6

     total cpu time spent up to now is       12.0 secs

     total energy              =    -362.22326295 Ry
     estimated scf accuracy    <       0.00000132 Ry

     iteration # 15     ecut=    25.00 Ry     beta= 0.50
     Davidson diagonalization with overlap
     ethr =  1.67E-09,  avg # of iterations =  3.1

     total cpu time spent up to now is       12.6 secs

     total energy              =    -362.22326299 Ry
     estimated scf accuracy    <       0.00000036 Ry

     iteration # 16     ecut=    25.00 Ry     beta= 0.50
     Davidson diagonalization with overlap
     ethr =  7.53E-10,  avg # of iterations =  4.0

     total cpu time spent up to now is       13.3 secs

     total energy              =    -362.22326304 Ry
     estimated scf accuracy    <       0.00000002 Ry

     iteration # 17     ecut=    25.00 Ry     beta= 0.50
     Davidson diagonalization with overlap
     ethr =  4.04E-11,  avg # of iterations =  5.7

     total cpu time spent up to now is       14.3 secs

     total energy              =    -362.22326306 Ry
     estimated scf accuracy    <       0.00000002 Ry

     iteration # 18     ecut=    25.00 Ry     beta= 0.50
     Davidson diagonalization with overlap
     ethr =  4.04E-11,  avg # of iterations =  1.0

     total cpu time spent up to now is       14.8 secs

     total energy              =    -362.22326306 Ry
     estimated scf accuracy    <       0.00000001 Ry

     iteration # 19     ecut=    25.00 Ry     beta= 0.50
     Davidson diagonalization with overlap
     ethr =  2.89E-11,  avg # of iterations =  1.2

     total cpu time spent up to now is       15.4 secs

     End of self-consistent calculation

          k = 0.0000 0.0000 0.0000 (   913 PWs)   bands (ev):

   -48.1146 -48.0993 -24.7130 -24.7130 -24.5671 -24.5671 -24.5388 -24.5079
    -9.5007  -8.3002  -7.6777  -7.6777   2.6034   3.0953   3.4205   4.7165
     4.7165   5.7601   5.7601   6.3442   7.6308   7.8577   7.8577   8.4003

          k = 0.0000 0.0000 0.3901 (   909 PWs)   bands (ev):

   -48.0944 -48.0822 -24.7403 -24.7203 -24.6600 -24.6600 -24.5577 -24.5577
    -8.9592  -8.0614  -7.8872  -7.8872   3.3635   3.6138   4.1093   4.3009
     4.3009   5.0134   5.9008   6.5329   6.5329   6.8464   6.8464   7.8559

          k = 0.0000 0.0000-0.7802 (   888 PWs)   bands (ev):

   -48.0688 -48.0688 -24.9303 -24.9303 -24.5955 -24.5955 -24.5592 -24.5592
    -8.1092  -8.1092  -8.0973  -8.0973   3.8543   3.8543   4.6215   4.6215
     4.7106   4.7106   5.4957   5.4957   5.9323   5.9323   6.9472   6.9472

          k = 0.0000 0.3333 0.0000 (   924 PWs)   bands (ev):

   -48.1114 -48.1034 -24.6804 -24.6782 -24.6045 -24.6023 -24.5311 -24.5157
    -9.1314  -8.4070  -7.9359  -7.8033   3.2027   3.4624   4.1782   4.7575
     4.7716   5.2022   5.4108   6.3127   6.4287   7.0383   7.4873   7.9862

          k = 0.0000 0.3333 0.3901 (   924 PWs)   bands (ev):

   -48.0916 -48.0856 -24.7475 -24.7359 -24.6317 -24.6253 -24.5815 -24.5768
    -8.7052  -8.1773  -8.0189  -7.9389   3.7050   4.0148   4.0589   4.1490
     4.9446   4.9655   5.1548   5.9649   6.0662   6.8460   7.2407   7.7585

          k = 0.0000 0.3333-0.7802 (   904 PWs)   bands (ev):

   -48.0693 -48.0693 -24.9378 -24.9378 -24.5886 -24.5886 -24.5586 -24.5586
    -8.3900  -8.3900  -7.7959  -7.7959   3.4586   3.4586   4.2086   4.2086
     5.0207   5.0207   5.8109   5.8109   6.5181   6.5181   6.9728   6.9728

          k = 0.3333 0.3333 0.0000 (   920 PWs)   bands (ev):

   -48.1091 -48.1054 -24.7218 -24.6872 -24.5970 -24.5614 -24.5272 -24.5195
    -8.9739  -8.6124  -7.9090  -7.7780   2.8561   3.3404   4.6534   4.6539
     4.7317   5.4236   5.9813   6.5069   6.6844   6.8325   7.0850   7.5892

          k = 0.3333 0.3333 0.3901 (   927 PWs)   bands (ev):

   -48.0902 -48.0873 -24.7408 -24.7313 -24.6665 -24.6335 -24.5749 -24.5539
    -8.5597  -8.2921  -8.0109  -7.9718   3.4277   3.7879   3.8721   3.9439
     5.0507   5.5589   5.6533   6.1003   6.5029   6.6248   7.0517   7.4831

          k = 0.3333 0.3333-0.7802 (   914 PWs)   bands (ev):

   -48.0695 -48.0695 -24.9367 -24.9307 -24.5968 -24.5892 -24.5602 -24.5592
    -8.3949  -8.1681  -8.0215  -7.7818   3.3095   3.7633   3.8812   4.0584
     4.4914   5.2856   5.5130   5.7125   6.7224   6.9774   7.3074   7.4966

     highest occupied level (ev):     8.4003

!    total energy              =    -362.22326305 Ry
     estimated scf accuracy    <          7.9E-09 Ry

     The total energy is the sum of the following terms:
     one-electron contribution =    -130.86171459 Ry
     hartree contribution      =      86.54670214 Ry
     xc contribution           =     -55.94332189 Ry
     ewald contribution        =    -261.96492872 Ry

     convergence has been achieved in  19 iterations

     Forces acting on atoms (cartesian axes, Ry/au):

     atom    1 type  1   force =     0.00000000    0.00000000    0.00000000
     atom    2 type  1   force =     0.00000000    0.00000000    0.00000000
     atom    3 type  2   force =     0.01931695    0.01931695    0.00000000
     atom    4 type  2   force =    -0.01931695   -0.01931695    0.00000000
     atom    5 type  2   force =     0.01931695   -0.01931695    0.00000000
     atom    6 type  2   force =    -0.01931695    0.01931695    0.00000000

     Total force =     0.054637     Total SCF correction =     0.000022


     Computing stress (Cartesian axis) and pressure

          total   stress  (Ry/bohr**3)                   (kbar)     P=     -278.25
  -0.00184545   0.00000000   0.00000000         -271.48        0.00        0.00
   0.00000000  -0.00184545   0.00000000            0.00     -271.48        0.00
   0.00000000   0.00000000  -0.00198359            0.00        0.00     -291.80


     BFGS Geometry Optimization
     Energy error            =      0.0E+00
     Gradient error          =      1.9E-02
     Cell gradient error     =      2.0E-03


     number of scf cycles    =   1
     number of bfgs steps    =   0

     enthalpy new            =    -362.2232630535 Ry

     new trust radius        =       0.2068143611 bohr
WARNING! With ibrav=0, cell_dofree='ibrav' does not have any effect. 
     new conv_thr            =       0.0000000100 Ry

     new unit-cell volume =    376.01268 a.u.^3 (    55.71933 Ang^3 )
     density =      4.76025 g/cm^3

CELL_PARAMETERS (angstrom)
   4.435465887   0.000000000   0.000000000
   0.000000000   4.435465887   0.000000000
   0.000000000   0.000000000   2.832222750

ATOMIC_POSITIONS (crystal)
Ti            0.0000000000        0.0000000000        0.0000000000
Ti            0.5000000000        0.5000000000        0.5000000000
O             0.3021982994        0.3021982994        0.0000000000
O             0.6978017006        0.6978017006        0.0000000000
O             0.8021982994        0.1978017006        0.5000000000
O             0.1978017006        0.8021982994        0.5000000000



     Writing output data file ./tmp_tio2/tio2.save/
     NEW-OLD atomic charge density approx. for the potential
     extrapolated charge   40.80461, renormalised to   48.00000

     total cpu time spent up to now is       17.7 secs

     Self-consistent Calculation

     iteration #  1     ecut=    25.00 Ry     beta= 0.50
     Davidson diagonalization with overlap
     c_bands:  4 eigenvalues not converged
     c_bands:  2 eigenvalues not converged
     c_bands:  1 eigenvalues not converged
     c_bands:  4 eigenvalues not converged
     c_bands:  3 eigenvalues not converged
     c_bands:  1 eigenvalues not converged
     c_bands:  4 eigenvalues not converged
     ethr =  1.00E-06,  avg # of iterations = 22.0

     total cpu time spent up to now is       20.6 secs

     total energy              =    -329.77202660 Ry
     estimated scf accuracy    <      40.50964614 Ry

     iteration #  2     ecut=    25.00 Ry     beta= 0.50
     Davidson diagonalization with overlap
     ethr =  1.00E-02,  avg # of iterations =  8.9

     total cpu time spent up to now is       22.2 secs

     total energy              =    -364.79162460 Ry
     estimated scf accuracy    <      45.51246622 Ry

     iteration #  3     ecut=    25.00 Ry     beta= 0.50
     Davidson diagonalization with overlap
     ethr =  1.00E-02,  avg # of iterations =  3.0

     total cpu time spent up to now is       23.0 secs

     total energy              =    -362.73015506 Ry
     estimated scf accuracy    <      12.53829691 Ry

     iteration #  4     ecut=    25.00 Ry     beta= 0.50
     Davidson diagonalization with overlap
     ethr =  1.00E-02,  avg # of iterations =  2.0

     total cpu time spent up to now is       23.7 secs

     total energy              =    -362.37262394 Ry
     estimated scf accuracy    <       4.18161879 Ry

     iteration #  5     ecut=    25.00 Ry     beta= 0.50
     Davidson diagonalization with overlap
     ethr =  8.71E-03,  avg # of iterations =  1.7

     total cpu time spent up to now is       24.3 secs

     total energy              =    -362.59564785 Ry
     estimated scf accuracy    <       1.96626781 Ry

     iteration #  6     ecut=    25.00 Ry     beta= 0.50
     Davidson diagonalization with overlap
     ethr =  4.10E-03,  avg # of iterations =  1.0

     total cpu time spent up to now is       24.8 secs

     total energy              =    -362.46833293 Ry
     estimated scf accuracy    <       1.94398924 Ry

     iteration #  7     ecut=    25.00 Ry     beta= 0.50
     Davidson diagonalization with overlap
     ethr =  4.05E-03,  avg # of iterations =  1.0

     total cpu time spent up to now is       25.4 secs

     total energy              =    -362.50086354 Ry
     estimated scf accuracy    <       1.37673253 Ry

     iteration #  8     ecut=    25.00 Ry     beta= 0.50
     Davidson diagonalization with overlap
     ethr =  2.87E-03,  avg # of iterations =  1.0

     total cpu time spent up to now is       25.9 secs

     total energy              =    -362.17316275 Ry
     estimated scf accuracy    <       1.31358382 Ry

     iteration #  9     ecut=    25.00 Ry     beta= 0.50
     Davidson diagonalization with overlap
     ethr =  2.74E-03,  avg # of iterations =  2.0

     total cpu time spent up to now is       26.5 secs

     total energy              =    -362.13205290 Ry
     estimated scf accuracy    <       0.64760694 Ry

     iteration # 10     ecut=    25.00 Ry     beta= 0.50
     Davidson diagonalization with overlap
     ethr =  1.35E-03,  avg # of iterations =  3.9

     total cpu time spent up to now is       27.2 secs

     total energy              =    -362.28542760 Ry
     estimated scf accuracy    <       0.11314129 Ry

     iteration # 11     ecut=    25.00 Ry     beta= 0.50
     Davidson diagonalization with overlap
     ethr =  2.36E-04,  avg # of iterations =  4.3

     total cpu time spent up to now is       27.9 secs

     total energy              =    -362.30251034 Ry
     estimated scf accuracy    <       0.12994661 Ry

     iteration # 12     ecut=    25.00 Ry     beta= 0.50
     Davidson diagonalization with overlap
     ethr =  2.36E-04,  avg # of iterations =  1.0

     total cpu time spent up to now is       28.5 secs

     total energy              =    -362.27753696 Ry
     estimated scf accuracy    <       0.12614539 Ry

     iteration # 13     ecut=    25.00 Ry     beta= 0.50
     Davidson diagonalization with overlap
     ethr =  2.36E-04,  avg # of iterations =  4.0

     total cpu time spent up to now is       29.3 secs

     total energy              =    -362.32489044 Ry
     estimated scf accuracy    <       0.18973647 Ry

     iteration # 14     ecut=    25.00 Ry     beta= 0.50
     Davidson diagonalization with overlap
     ethr =  2.36E-04,  avg # of iterations =  2.2

     total cpu time spent up to now is       29.9 secs

     total energy              =    -362.38159891 Ry
     estimated scf accuracy    <       0.25959445 Ry

     iteration # 15     ecut=    25.00 Ry     beta= 0.50
     Davidson diagonalization with overlap
     ethr =  2.36E-04,  avg # of iterations =  4.4

     total cpu time spent up to now is       30.7 secs

     total energy              =    -362.20060640 Ry
     estimated scf accuracy    <       0.58870453 Ry

     iteration # 16     ecut=    25.00 Ry     beta= 0.50
     Davidson diagonalization with overlap
     ethr =  2.36E-04,  avg # of iterations =  4.4

     total cpu time spent up to now is       31.6 secs

     total energy              =    -362.30843761 Ry
     estimated scf accuracy    <       0.05390614 Ry

     iteration # 17     ecut=    25.00 Ry     beta= 0.50
     Davidson diagonalization with overlap
     ethr =  1.12E-04,  avg # of iterations =  4.9

     total cpu time spent up to now is       32.5 secs

     total energy              =    -362.30731625 Ry
     estimated scf accuracy    <       0.36172009 Ry

     iteration # 18     ecut=    25.00 Ry     beta= 0.50
     Davidson diagonalization with overlap
     ethr =  1.12E-04,  avg # of iterations =  1.0

     total cpu time spent up to now is       33.1 secs

     total energy              =    -362.36063888 Ry
     estimated scf accuracy    <       0.29331154 Ry

     iteration # 19     ecut=    25.00 Ry     beta= 0.50
     Davidson diagonalization with overlap
     ethr =  1.12E-04,  avg # of iterations =  1.8

     total cpu time spent up to now is       33.7 secs

     total energy              =    -362.33863319 Ry
     estimated scf accuracy    <       0.41946509 Ry

     iteration # 20     ecut=    25.00 Ry     beta= 0.50
     Davidson diagonalization with overlap
     ethr =  1.12E-04,  avg # of iterations =  1.0

     total cpu time spent up to now is       34.2 secs

     total energy              =    -362.15011274 Ry
     estimated scf accuracy    <       0.37981514 Ry

     iteration # 21     ecut=    25.00 Ry     beta= 0.50
     Davidson diagonalization with overlap
     ethr =  1.12E-04,  avg # of iterations =  6.0

     total cpu time spent up to now is       35.3 secs

     total energy              =    -362.23936421 Ry
     estimated scf accuracy    <       0.04672999 Ry

     iteration # 22     ecut=    25.00 Ry     beta= 0.50
     Davidson diagonalization with overlap
     ethr =  9.74E-05,  avg # of iterations =  3.3

     total cpu time spent up to now is       36.0 secs

     total energy              =    -362.24280573 Ry
     estimated scf accuracy    <       0.00525755 Ry

     iteration # 23     ecut=    25.00 Ry     beta= 0.50
     Davidson diagonalization with overlap
     ethr =  1.10E-05,  avg # of iterations =  4.8

     total cpu time spent up to now is       36.9 secs

     total energy              =    -362.24609151 Ry
     estimated scf accuracy    <       0.00382206 Ry

     iteration # 24     ecut=    25.00 Ry     beta= 0.50
     Davidson diagonalization with overlap
     ethr =  7.96E-06,  avg # of iterations =  2.2

     total cpu time spent up to now is       37.5 secs

     total energy              =    -362.24619921 Ry
     estimated scf accuracy    <       0.00069550 Ry

     iteration # 25     ecut=    25.00 Ry     beta= 0.50
     Davidson diagonalization with overlap
     ethr =  1.45E-06,  avg # of iterations =  4.6

     total cpu time spent up to now is       38.5 secs

     total energy              =    -362.24657167 Ry
     estimated scf accuracy    <       0.00051285 Ry

     iteration # 26     ecut=    25.00 Ry     beta= 0.50
     Davidson diagonalization with overlap
     ethr =  1.07E-06,  avg # of iterations =  2.2

     total cpu time spent up to now is       39.1 secs

     total energy              =    -362.24660457 Ry
     estimated scf accuracy    <       0.00010200 Ry

     iteration # 27     ecut=    25.00 Ry     beta= 0.50
     Davidson diagonalization with overlap
     ethr =  2.13E-07,  avg # of iterations =  4.0

     total cpu time spent up to now is       39.9 secs

     total energy              =    -362.24664092 Ry
     estimated scf accuracy    <       0.00000149 Ry

     iteration # 28     ecut=    25.00 Ry     beta= 0.50
     Davidson diagonalization with overlap
     ethr =  3.10E-09,  avg # of iterations =  4.2

     total cpu time spent up to now is       40.7 secs

     total energy              =    -362.24664119 Ry
     estimated scf accuracy    <       0.00000099 Ry

     iteration # 29     ecut=    25.00 Ry     beta= 0.50
     Davidson diagonalization with overlap
     ethr =  2.05E-09,  avg # of iterations =  4.0

     total cpu time spent up to now is       41.4 secs

     total energy              =    -362.24664134 Ry
     estimated scf accuracy    <       0.00000010 Ry

     iteration # 30     ecut=    25.00 Ry     beta= 0.50
     Davidson diagonalization with overlap
     ethr =  2.02E-10,  avg # of iterations =  4.3

     total cpu time spent up to now is       42.1 secs

     total energy              =    -362.24664135 Ry
     estimated scf accuracy    <       0.00000002 Ry

     iteration # 31     ecut=    25.00 Ry     beta= 0.50
     Davidson diagonalization with overlap
     ethr =  4.98E-11,  avg # of iterations =  4.3

     total cpu time spent up to now is       42.9 secs

     End of self-consistent calculation

          k = 0.0000 0.0000 0.0000 (   913 PWs)   bands (ev):

   -45.3654 -45.3323 -22.1596 -22.1596 -21.8845 -21.8845 -21.8017 -21.7444
    -7.9675  -6.5777  -5.4876  -5.4876   4.1870   4.5031   4.6452   6.3357
     6.3357   7.7279   7.7279   8.4908   9.8819  10.0548  10.0548  10.5691

          k = 0.0000 0.0000 0.4105 (   909 PWs)   bands (ev):

   -45.3237 -45.2992 -22.1698 -22.1341 -22.0590 -22.0590 -21.8656 -21.8656
    -7.2011  -6.1430  -5.8872  -5.8872   5.1334   5.2322   5.4554   5.9129
     5.9129   6.9083   7.8659   8.6271   8.6271   8.9113   8.9113   9.9456

          k = 0.0000 0.0000-0.8209 (   888 PWs)   bands (ev):

   -45.2733 -45.2733 -22.5086 -22.5086 -21.9377 -21.9377 -21.8644 -21.8644
    -6.2813  -6.2813  -6.0603  -6.0603   5.5072   5.5072   6.2202   6.2202
     6.7143   6.7143   7.5458   7.5458   7.6200   7.6200   9.0344   9.0344

          k = 0.0000 0.3495 0.0000 (   924 PWs)   bands (ev):

   -45.3575 -45.3407 -22.1008 -22.0953 -21.9575 -21.9514 -21.7871 -21.7588
    -7.4834  -6.6130  -5.9108  -5.7199   4.8023   4.9883   5.6443   6.3898
     6.4085   7.0617   7.4057   8.2816   8.5468   9.2057   9.5251  10.0973

          k = 0.0000 0.3495 0.4105 (   924 PWs)   bands (ev):

   -45.3177 -45.3055 -22.1893 -22.1669 -22.0047 -21.9909 -21.9104 -21.9005
    -6.8921  -6.2807  -6.0453  -5.9626   5.4222   5.5006   5.7047   5.7909
     6.7559   6.7978   6.9154   8.0373   8.1952   8.8753   9.2402   9.8363

          k = 0.0000 0.3495-0.8209 (   904 PWs)   bands (ev):

   -45.2734 -45.2734 -22.5236 -22.5236 -21.9238 -21.9238 -21.8640 -21.8640
    -6.6746  -6.6746  -5.6183  -5.6183   4.8916   4.8916   6.0107   6.0107
     6.9657   6.9657   7.8593   7.8593   8.5188   8.5188   8.8905   8.8905

          k = 0.3495 0.3495 0.0000 (   920 PWs)   bands (ev):

   -45.3530 -45.3448 -22.1788 -22.1145 -21.9420 -21.8734 -21.7798 -21.7655
    -7.3199  -6.8735  -5.8768  -5.6320   4.3660   4.9377   6.1649   6.2669
     6.3602   7.3818   7.8290   8.4622   8.8270   8.8331   9.2913   9.7720

          k = 0.3495 0.3495 0.4105 (   927 PWs)   bands (ev):

   -45.3146 -45.3086 -22.1761 -22.1549 -22.0741 -22.0078 -21.8971 -21.8582
    -6.7118  -6.4003  -6.0525  -6.0044   5.1515   5.2585   5.4600   5.6586
     6.8931   7.3801   7.4725   8.2458   8.4435   8.7200   9.0881   9.5730

          k = 0.3495 0.3495-0.8209 (   914 PWs)   bands (ev):

   -45.2735 -45.2735 -22.5213 -22.5092 -21.9421 -21.9255 -21.8680 -21.8656
    -6.6894  -6.3769  -5.9375  -5.5888   4.7365   5.2326   5.6878   5.9995
     6.2051   7.1472   7.5555   7.8661   8.6111   8.9797   9.3973   9.5843

     highest occupied level (ev):    10.5691

!    total energy              =    -362.24664136 Ry
     estimated scf accuracy    <          4.2E-09 Ry

     The total energy is the sum of the following terms:
     one-electron contribution =    -112.63382741 Ry
     hartree contribution      =      81.67551108 Ry
     xc contribution           =     -56.66857227 Ry
     ewald contribution        =    -274.61975277 Ry

     convergence has been achieved in  31 iterations

     Forces acting on atoms (cartesian axes, Ry/au):

     atom    1 type  1   force =     0.00000000    0.00000000   -0.00000000
     atom    2 type  1   force =     0.00000000    0.00000000    0.00000000
     atom    3 type  2   force =    -0.00429911   -0.00429911    0.00000000
     atom    4 type  2   force =     0.00429911    0.00429911    0.00000000
     atom    5 type  2   force =    -0.00429911    0.00429911   -0.00000000
     atom    6 type  2   force =     0.00429911   -0.00429911    0.00000000

     Total force =     0.012160     Total SCF correction =     0.000014


     Computing stress (Cartesian axis) and pressure

          total   stress  (Ry/bohr**3)                   (kbar)     P=      208.98
   0.00123979   0.00000000   0.00000000          182.38        0.00        0.00
   0.00000000   0.00123979   0.00000000            0.00      182.38        0.00
   0.00000000   0.00000000   0.00178221            0.00        0.00      262.17

     Energy error            =      2.3E-02
     Gradient error          =      4.3E-03
     Cell gradient error     =      1.8E-03


     number of scf cycles    =   2
     number of bfgs steps    =   1

     enthalpy old            =    -362.2232630535 Ry
     enthalpy new            =    -362.2466413596 Ry

     CASE: enthalpy_new < enthalpy_old

     new trust radius        =       0.0977400272 bohr
WARNING! With ibrav=0, cell_dofree='ibrav' does not have any effect. 
     new conv_thr            =       0.0000000004 Ry

     new unit-cell volume =    398.97222 a.u.^3 (    59.12158 Ang^3 )
     density =      4.48631 g/cm^3

CELL_PARAMETERS (angstrom)
   4.512368178   0.000000000   0.000000000
   0.000000000   4.512368178   0.000000000
   0.000000000   0.000000000   2.903601448

ATOMIC_POSITIONS (crystal)
Ti            0.0000000000        0.0000000000        0.0000000000
Ti            0.5000000000        0.5000000000        0.5000000000
O             0.3019314361        0.3019314361        0.0000000000
O             0.6980685639        0.6980685639        0.0000000000
O             0.8019314361        0.1980685639        0.5000000000
O             0.1980685639        0.8019314361        0.5000000000



     Writing output data file ./tmp_tio2/tio2.save/
     NEW-OLD atomic charge density approx. for the potential
     extrapolated charge   50.64714, renormalised to   48.00000

     total cpu time spent up to now is       45.4 secs

     Self-consistent Calculation

     iteration #  1     ecut=    25.00 Ry     beta= 0.50
     Davidson diagonalization with overlap
     ethr =  1.00E-06,  avg # of iterations = 10.7

     total cpu time spent up to now is       47.3 secs

     total energy              =    -361.83641997 Ry
     estimated scf accuracy    <       0.29915180 Ry

     iteration #  2     ecut=    25.00 Ry     beta= 0.50
     Davidson diagonalization with overlap
     ethr =  6.23E-04,  avg # of iterations =  5.9

     total cpu time spent up to now is       48.4 secs

     total energy              =    -362.22455983 Ry
     estimated scf accuracy    <       0.53659597 Ry

     iteration #  3     ecut=    25.00 Ry     beta= 0.50
     Davidson diagonalization with overlap
     ethr =  6.23E-04,  avg # of iterations =  4.0

     total cpu time spent up to now is       49.2 secs

     total energy              =    -362.27182492 Ry
     estimated scf accuracy    <       0.07839540 Ry

     iteration #  4     ecut=    25.00 Ry     beta= 0.50
     Davidson diagonalization with overlap
     ethr =  1.63E-04,  avg # of iterations =  1.7

     total cpu time spent up to now is       49.8 secs

     total energy              =    -362.26878356 Ry
     estimated scf accuracy    <       0.03828061 Ry

     iteration #  5     ecut=    25.00 Ry     beta= 0.50
     Davidson diagonalization with overlap
     ethr =  7.98E-05,  avg # of iterations =  2.0

     total cpu time spent up to now is       50.4 secs

     total energy              =    -362.26240946 Ry
     estimated scf accuracy    <       0.02181936 Ry

     iteration #  6     ecut=    25.00 Ry     beta= 0.50
     Davidson diagonalization with overlap
     ethr =  4.55E-05,  avg # of iterations =  2.0

     total cpu time spent up to now is       51.0 secs

     total energy              =    -362.26192638 Ry
     estimated scf accuracy    <       0.00675764 Ry

     iteration #  7     ecut=    25.00 Ry     beta= 0.50
     Davidson diagonalization with overlap
     ethr =  1.41E-05,  avg # of iterations =  3.2

     total cpu time spent up to now is       51.6 secs

     total energy              =    -362.26202130 Ry
     estimated scf accuracy    <       0.00226925 Ry

     iteration #  8     ecut=    25.00 Ry     beta= 0.50
     Davidson diagonalization with overlap
     ethr =  4.73E-06,  avg # of iterations =  2.9

     total cpu time spent up to now is       52.2 secs

     total energy              =    -362.26160233 Ry
     estimated scf accuracy    <       0.00101069 Ry

     iteration #  9     ecut=    25.00 Ry     beta= 0.50
     Davidson diagonalization with overlap
     ethr =  2.11E-06,  avg # of iterations =  3.8

     total cpu time spent up to now is       53.0 secs

     total energy              =    -362.26183496 Ry
     estimated scf accuracy    <       0.00001665 Ry

     iteration # 10     ecut=    25.00 Ry     beta= 0.50
     Davidson diagonalization with overlap
     ethr =  3.47E-08,  avg # of iterations =  6.7

     total cpu time spent up to now is       54.0 secs

     total energy              =    -362.26186548 Ry
     estimated scf accuracy    <       0.00001021 Ry

     iteration # 11     ecut=    25.00 Ry     beta= 0.50
     Davidson diagonalization with overlap
     ethr =  2.13E-08,  avg # of iterations =  1.3

     total cpu time spent up to now is       54.6 secs

     total energy              =    -362.26186412 Ry
     estimated scf accuracy    <       0.00000826 Ry

     iteration # 12     ecut=    25.00 Ry     beta= 0.50
     Davidson diagonalization with overlap
     ethr =  1.72E-08,  avg # of iterations =  1.8

     total cpu time spent up to now is       55.2 secs

     total energy              =    -362.26186311 Ry
     estimated scf accuracy    <       0.00000433 Ry

     iteration # 13     ecut=    25.00 Ry     beta= 0.50
     Davidson diagonalization with overlap
     ethr =  9.02E-09,  avg # of iterations =  4.1

     total cpu time spent up to now is       55.9 secs

     total energy              =    -362.26186426 Ry
     estimated scf accuracy    <       0.00000009 Ry

     iteration # 14     ecut=    25.00 Ry     beta= 0.50
     Davidson diagonalization with overlap
     ethr =  1.78E-10,  avg # of iterations =  5.7

     total cpu time spent up to now is       56.9 secs

     total energy              =    -362.26186432 Ry
     estimated scf accuracy    <       0.00000040 Ry

     iteration # 15     ecut=    25.00 Ry     beta= 0.50
     Davidson diagonalization with overlap
     ethr =  1.78E-10,  avg # of iterations =  1.2

     total cpu time spent up to now is       57.4 secs

     total energy              =    -362.26186420 Ry
     estimated scf accuracy    <       0.00000027 Ry

     iteration # 16     ecut=    25.00 Ry     beta= 0.50
     Davidson diagonalization with overlap
     ethr =  1.78E-10,  avg # of iterations =  5.0

     total cpu time spent up to now is       58.4 secs

     total energy              =    -362.26186428 Ry
     estimated scf accuracy    <       0.00000004 Ry

     iteration # 17     ecut=    25.00 Ry     beta= 0.50
     Davidson diagonalization with overlap
     ethr =  8.80E-11,  avg # of iterations =  1.0

     total cpu time spent up to now is       59.0 secs

     total energy              =    -362.26186426 Ry
     estimated scf accuracy    <       0.00000003 Ry

     iteration # 18     ecut=    25.00 Ry     beta= 0.50
     Davidson diagonalization with overlap
     ethr =  6.17E-11,  avg # of iterations =  5.1

     total cpu time spent up to now is       60.1 secs

     total energy              =    -362.26186428 Ry
     estimated scf accuracy    <       0.00000008 Ry

     iteration # 19     ecut=    25.00 Ry     beta= 0.50
     Davidson diagonalization with overlap
     ethr =  6.17E-11,  avg # of iterations =  1.9

     total cpu time spent up to now is       60.6 secs

     total energy              =    -362.26186427 Ry
     estimated scf accuracy    <       0.00000004 Ry

     iteration # 20     ecut=    25.00 Ry     beta= 0.50
     Davidson diagonalization with overlap
     ethr =  6.17E-11,  avg # of iterations =  4.0

     total cpu time spent up to now is       61.3 secs

     total energy              =    -362.26186428 Ry
     estimated scf accuracy    <          4.3E-09 Ry

     iteration # 21     ecut=    25.00 Ry     beta= 0.50
     Davidson diagonalization with overlap
     ethr =  9.01E-12,  avg # of iterations =  3.6

     total cpu time spent up to now is       62.0 secs

     total energy              =    -362.26186428 Ry
     estimated scf accuracy    <          2.1E-09 Ry

     iteration # 22     ecut=    25.00 Ry     beta= 0.50
     Davidson diagonalization with overlap
     ethr =  4.33E-12,  avg # of iterations =  3.7

     total cpu time spent up to now is       62.6 secs

     End of self-consistent calculation

          k = 0.0000 0.0000 0.0000 (   913 PWs)   bands (ev):

   -46.5173 -46.4928 -23.2201 -23.2201 -23.0074 -23.0074 -22.9542 -22.9091
    -8.6201  -7.3027  -6.4155  -6.4155   3.5141   3.9078   4.1434   5.6198
     5.6198   6.9129   6.9129   7.5407   8.9133   9.1364   9.1364   9.6574

          k = 0.0000 0.0000 0.4004 (   909 PWs)   bands (ev):

   -46.4871 -46.4687 -23.2359 -23.2068 -23.1440 -23.1440 -22.9941 -22.9941
    -7.9577  -6.9621  -6.7265  -6.7265   4.3702   4.5373   4.8967   5.2380
     5.2380   6.0915   7.0366   7.7699   7.7699   8.0204   8.0204   9.0551

          k = 0.0000 0.0000-0.8007 (   888 PWs)   bands (ev):

   -46.4500 -46.4500 -23.4976 -23.4976 -23.0515 -23.0515 -22.9956 -22.9956
    -7.0346  -7.0346  -6.9467  -6.9467   4.8119   4.8119   5.5553   5.5553
     5.8488   5.8488   6.7176   6.7176   6.9036   6.9036   8.1488   8.1488

          k = 0.0000 0.3435 0.0000 (   924 PWs)   bands (ev):

   -46.5116 -46.4991 -23.1736 -23.1697 -23.0634 -23.0592 -22.9428 -22.9203
    -8.1849  -7.3717  -6.7664  -6.5997   4.1307   4.3412   5.0334   5.6678
     5.6851   6.3003   6.5830   7.4592   7.6156   8.2660   8.6672   9.2067

          k = 0.0000 0.3435 0.4004 (   924 PWs)   bands (ev):

   -46.4827 -46.4735 -23.2501 -23.2323 -23.1018 -23.0911 -23.0289 -23.0211
    -7.6668  -7.0735  -6.8936  -6.7971   4.7078   4.8706   5.0258   5.0860
     5.9869   6.0215   6.1686   7.1624   7.2872   8.0201   8.3977   8.9555

          k = 0.0000 0.3435-0.8007 (   904 PWs)   bands (ev):

   -46.4503 -46.4503 -23.5096 -23.5096 -23.0407 -23.0407 -22.9950 -22.9950
    -7.3867  -7.3867  -6.5614  -6.5614   4.2942   4.2942   5.2697   5.2697
     6.1558   6.1558   6.9799   6.9799   7.6715   7.6715   8.0806   8.0806

          k = 0.3435 0.3435 0.0000 (   920 PWs)   bands (ev):

   -46.5082 -46.5022 -23.2343 -23.1840 -23.0517 -22.9987 -22.9371 -22.9257
    -8.0208  -7.6097  -6.7353  -6.5418   3.7267   4.2604   5.5374   5.5525
     5.6390   6.5698   7.0737   7.6387   7.8935   8.0045   8.3313   8.8556

          k = 0.3435 0.3435 0.4004 (   927 PWs)   bands (ev):

   -46.4804 -46.4759 -23.2397 -23.2235 -23.1550 -23.1039 -23.0186 -22.9885
    -7.5015  -7.2027  -6.8854  -6.8311   4.4105   4.6356   4.8134   4.9053
     6.1108   6.6585   6.6655   7.3410   7.6595   7.8320   8.2200   8.6825

          k = 0.3435 0.3435-0.8007 (   914 PWs)   bands (ev):

   -46.4504 -46.4504 -23.5079 -23.4982 -23.0545 -23.0418 -22.9979 -22.9962
    -7.3969  -7.1211  -6.8376  -6.5389   4.1392   4.6104   4.9341   5.1567
     5.5067   6.3627   6.7317   6.9417   7.8191   8.1422   8.5146   8.7030

     highest occupied level (ev):     9.6574

!    total energy              =    -362.26186428 Ry
     estimated scf accuracy    <          5.6E-11 Ry

     The total energy is the sum of the following terms:
     one-electron contribution =    -119.98180982 Ry
     hartree contribution      =      83.56122888 Ry
     xc contribution           =     -56.35910111 Ry
     ewald contribution        =    -269.48218223 Ry

     convergence has been achieved in  22 iterations

     Forces acting on atoms (cartesian axes, Ry/au):

     atom    1 type  1   force =     0.00000000    0.00000000   -0.00000000
     atom    2 type  1   force =     0.00000000    0.00000000   -0.00000000
     atom    3 type  2   force =     0.00541913    0.00541913   -0.00000000
     atom    4 type  2   force =    -0.00541913   -0.00541913   -0.00000000
     atom    5 type  2   force =     0.00541913   -0.00541913    0.00000000
     atom    6 type  2   force =    -0.00541913    0.00541913    0.00000000

     Total force =     0.015328     Total SCF correction =     0.000000


     Computing stress (Cartesian axis) and pressure

          total   stress  (Ry/bohr**3)                   (kbar)     P=      -12.87
  -0.00009815   0.00000000   0.00000000          -14.44        0.00        0.00
   0.00000000  -0.00009815   0.00000000            0.00      -14.44        0.00
   0.00000000   0.00000000  -0.00006617            0.00        0.00       -9.73

     Energy error            =      1.5E-02
     Gradient error          =      5.4E-03
     Cell gradient error     =      9.8E-05


     number of scf cycles    =   3
     number of bfgs steps    =   2

     enthalpy old            =    -362.2466413596 Ry
     enthalpy new            =    -362.2618642798 Ry

     CASE: enthalpy_new < enthalpy_old

     new trust radius        =       0.0066741497 bohr
WARNING! With ibrav=0, cell_dofree='ibrav' does not have any effect. 
     new conv_thr            =       0.0000000005 Ry

     new unit-cell volume =    397.68771 a.u.^3 (    58.93124 Ang^3 )
     density =      4.50080 g/cm^3

CELL_PARAMETERS (angstrom)
   4.505816462   0.000000000   0.000000000
   0.000000000   4.505816462   0.000000000
   0.000000000   0.000000000   2.902676043

ATOMIC_POSITIONS (crystal)
Ti            0.0000000000        0.0000000000       -0.0000000000
Ti            0.5000000000        0.5000000000        0.5000000000
O             0.3024848850        0.3024848850        0.0000000000
O             0.6975151150        0.6975151150        0.0000000000
O             0.8024848850        0.1975151150        0.5000000000
O             0.1975151150        0.8024848850        0.5000000000



     Writing output data file ./tmp_tio2/tio2.save/
     NEW-OLD atomic charge density approx. for the potential
     extrapolated charge   47.85142, renormalised to   48.00000

     total cpu time spent up to now is       65.0 secs

     Self-consistent Calculation

     iteration #  1     ecut=    25.00 Ry     beta= 0.50
     Davidson diagonalization with overlap
     ethr =  1.00E-06,  avg # of iterations =  6.2

     total cpu time spent up to now is       66.1 secs

     total energy              =    -362.26047293 Ry
     estimated scf accuracy    <       0.00131075 Ry

     iteration #  2     ecut=    25.00 Ry     beta= 0.50
     Davidson diagonalization with overlap
     ethr =  2.73E-06,  avg # of iterations =  5.9

     total cpu time spent up to now is       67.3 secs

     total energy              =    -362.26194429 Ry
     estimated scf accuracy    <       0.00221605 Ry

     iteration #  3     ecut=    25.00 Ry     beta= 0.50
     Davidson diagonalization with overlap
     ethr =  2.73E-06,  avg # of iterations =  4.0

     total cpu time spent up to now is       68.0 secs

     total energy              =    -362.26201856 Ry
     estimated scf accuracy    <       0.00043388 Ry

     iteration #  4     ecut=    25.00 Ry     beta= 0.50
     Davidson diagonalization with overlap
     ethr =  9.04E-07,  avg # of iterations =  4.1

     total cpu time spent up to now is       68.7 secs

     total energy              =    -362.26210236 Ry
     estimated scf accuracy    <       0.00007822 Ry

     iteration #  5     ecut=    25.00 Ry     beta= 0.50
     Davidson diagonalization with overlap
     ethr =  1.63E-07,  avg # of iterations =  2.3

     total cpu time spent up to now is       69.4 secs

     total energy              =    -362.26207638 Ry
     estimated scf accuracy    <       0.00006721 Ry

     iteration #  6     ecut=    25.00 Ry     beta= 0.50
     Davidson diagonalization with overlap
     ethr =  1.40E-07,  avg # of iterations =  2.0

     total cpu time spent up to now is       70.1 secs

     total energy              =    -362.26208208 Ry
     estimated scf accuracy    <       0.00002278 Ry

     iteration #  7     ecut=    25.00 Ry     beta= 0.50
     Davidson diagonalization with overlap
     ethr =  4.75E-08,  avg # of iterations =  2.0

     total cpu time spent up to now is       70.6 secs

     total energy              =    -362.26208341 Ry
     estimated scf accuracy    <       0.00001251 Ry

     iteration #  8     ecut=    25.00 Ry     beta= 0.50
     Davidson diagonalization with overlap
     ethr =  2.61E-08,  avg # of iterations =  1.0

     total cpu time spent up to now is       71.2 secs

     total energy              =    -362.26208158 Ry
     estimated scf accuracy    <       0.00001263 Ry

     iteration #  9     ecut=    25.00 Ry     beta= 0.50
     Davidson diagonalization with overlap
     ethr =  2.61E-08,  avg # of iterations =  2.3

     total cpu time spent up to now is       71.8 secs

     total energy              =    -362.26208030 Ry
     estimated scf accuracy    <       0.00000590 Ry

     iteration # 10     ecut=    25.00 Ry     beta= 0.50
     Davidson diagonalization with overlap
     ethr =  1.23E-08,  avg # of iterations =  4.3

     total cpu time spent up to now is       72.5 secs

     total energy              =    -362.26208332 Ry
     estimated scf accuracy    <       0.00000138 Ry

     iteration # 11     ecut=    25.00 Ry     beta= 0.50
     Davidson diagonalization with overlap
     ethr =  2.87E-09,  avg # of iterations =  5.3

     total cpu time spent up to now is       73.4 secs

     total energy              =    -362.26208277 Ry
     estimated scf accuracy    <       0.00000862 Ry

     iteration # 12     ecut=    25.00 Ry     beta= 0.50
     Davidson diagonalization with overlap
     ethr =  2.87E-09,  avg # of iterations =  2.2

     total cpu time spent up to now is       74.1 secs

     total energy              =    -362.26208221 Ry
     estimated scf accuracy    <       0.00000485 Ry

     iteration # 13     ecut=    25.00 Ry     beta= 0.50
     Davidson diagonalization with overlap
     ethr =  2.87E-09,  avg # of iterations =  3.6

     total cpu time spent up to now is       74.7 secs

     total energy              =    -362.26208238 Ry
     estimated scf accuracy    <       0.00000193 Ry

     iteration # 14     ecut=    25.00 Ry     beta= 0.50
     Davidson diagonalization with overlap
     ethr =  2.87E-09,  avg # of iterations =  1.0

     total cpu time spent up to now is       75.3 secs

     total energy              =    -362.26208218 Ry
     estimated scf accuracy    <       0.00000158 Ry

     iteration # 15     ecut=    25.00 Ry     beta= 0.50
     Davidson diagonalization with overlap
     ethr =  2.87E-09,  avg # of iterations =  1.0

     total cpu time spent up to now is       75.8 secs

     total energy              =    -362.26208225 Ry
     estimated scf accuracy    <       0.00000101 Ry

     iteration # 16     ecut=    25.00 Ry     beta= 0.50
     Davidson diagonalization with overlap
     ethr =  2.10E-09,  avg # of iterations =  1.0

     total cpu time spent up to now is       76.4 secs

     total energy              =    -362.26208218 Ry
     estimated scf accuracy    <       0.00000094 Ry

     iteration # 17     ecut=    25.00 Ry     beta= 0.50
     Davidson diagonalization with overlap
     ethr =  1.95E-09,  avg # of iterations =  1.4

     total cpu time spent up to now is       76.9 secs

     total energy              =    -362.26208217 Ry
     estimated scf accuracy    <       0.00000055 Ry

     iteration # 18     ecut=    25.00 Ry     beta= 0.50
     Davidson diagonalization with overlap
     ethr =  1.14E-09,  avg # of iterations =  2.0

     total cpu time spent up to now is       77.5 secs

     total energy              =    -362.26208202 Ry
     estimated scf accuracy    <       0.00000038 Ry

     iteration # 19     ecut=    25.00 Ry     beta= 0.50
     Davidson diagonalization with overlap
     ethr =  8.02E-10,  avg # of iterations =  4.0

     total cpu time spent up to now is       78.3 secs

     total energy              =    -362.26208217 Ry
     estimated scf accuracy    <       0.00000013 Ry

     iteration # 20     ecut=    25.00 Ry     beta= 0.50
     Davidson diagonalization with overlap
     ethr =  2.73E-10,  avg # of iterations =  2.4

     total cpu time spent up to now is       79.0 secs

     total energy              =    -362.26208216 Ry
     estimated scf accuracy    <       0.00000003 Ry

     iteration # 21     ecut=    25.00 Ry     beta= 0.50
     Davidson diagonalization with overlap
     ethr =  6.72E-11,  avg # of iterations =  4.6

     total cpu time spent up to now is       79.8 secs

     total energy              =    -362.26208219 Ry
     estimated scf accuracy    <       0.00000002 Ry

     iteration # 22     ecut=    25.00 Ry     beta= 0.50
     Davidson diagonalization with overlap
     ethr =  3.37E-11,  avg # of iterations =  2.2

     total cpu time spent up to now is       80.4 secs

     total energy              =    -362.26208218 Ry
     estimated scf accuracy    <       0.00000003 Ry

     iteration # 23     ecut=    25.00 Ry     beta= 0.50
     Davidson diagonalization with overlap
     ethr =  3.37E-11,  avg # of iterations =  1.0

     total cpu time spent up to now is       81.0 secs

     total energy              =    -362.26208217 Ry
     estimated scf accuracy    <       0.00000002 Ry

     iteration # 24     ecut=    25.00 Ry     beta= 0.50
     Davidson diagonalization with overlap
     ethr =  3.37E-11,  avg # of iterations =  5.0

     total cpu time spent up to now is       81.8 secs

     total energy              =    -362.26208218 Ry
     estimated scf accuracy    <          9.3E-09 Ry

     iteration # 25     ecut=    25.00 Ry     beta= 0.50
     Davidson diagonalization with overlap
     ethr =  1.94E-11,  avg # of iterations =  2.0

     total cpu time spent up to now is       82.4 secs

     total energy              =    -362.26208218 Ry
     estimated scf accuracy    <          2.8E-09 Ry

     iteration # 26     ecut=    25.00 Ry     beta= 0.50
     Davidson diagonalization with overlap
     ethr =  5.81E-12,  avg # of iterations =  4.3

     total cpu time spent up to now is       83.3 secs

     total energy              =    -362.26208218 Ry
     estimated scf accuracy    <          1.1E-09 Ry

     iteration # 27     ecut=    25.00 Ry     beta= 0.50
     Davidson diagonalization with overlap
     ethr =  2.36E-12,  avg # of iterations =  4.1

     total cpu time spent up to now is       84.0 secs

     End of self-consistent calculation

          k = 0.0000 0.0000 0.0000 (   913 PWs)   bands (ev):

   -46.4529 -46.4280 -23.1601 -23.1601 -22.9439 -22.9439 -22.8919 -22.8460
    -8.5873  -7.2676  -6.3615  -6.3615   3.5471   3.9360   4.1775   5.6393
     5.6393   6.9602   6.9602   7.5850   8.9614   9.1900   9.1900   9.6998

          k = 0.0000 0.0000 0.4005 (   909 PWs)   bands (ev):

   -46.4224 -46.4036 -23.1772 -23.1476 -23.0826 -23.0826 -22.9310 -22.9310
    -7.9175  -6.9193  -6.6804  -6.6804   4.4087   4.5733   4.9328   5.2734
     5.2734   6.1325   7.0804   7.8129   7.8129   8.0753   8.0753   9.1019

          k = 0.0000 0.0000-0.8010 (   888 PWs)   bands (ev):

   -46.3848 -46.3848 -23.4420 -23.4420 -22.9871 -22.9871 -22.9344 -22.9344
    -6.9956  -6.9956  -6.8977  -6.8977   4.8546   4.8546   5.5943   5.5943
     5.8920   5.8920   6.7787   6.7787   6.9455   6.9455   8.1944   8.1944

          k = 0.0000 0.3440 0.0000 (   924 PWs)   bands (ev):

   -46.4471 -46.4343 -23.1134 -23.1094 -23.0003 -22.9961 -22.8803 -22.8575
    -8.1504  -7.3380  -6.7127  -6.5477   4.1607   4.3677   5.0712   5.6864
     5.7033   6.3535   6.6414   7.5090   7.6625   8.3145   8.7104   9.2486

          k = 0.0000 0.3440 0.4005 (   924 PWs)   bands (ev):

   -46.4179 -46.4085 -23.1913 -23.1733 -23.0403 -23.0295 -22.9660 -22.9581
    -7.6249  -7.0272  -6.8520  -6.7525   4.7500   4.9030   5.0647   5.1204
     6.0277   6.0592   6.2111   7.2156   7.3429   8.0659   8.4373   8.9982

          k = 0.0000 0.3440-0.8010 (   904 PWs)   bands (ev):

   -46.3851 -46.3851 -23.4542 -23.4542 -22.9761 -22.9761 -22.9339 -22.9339
    -7.3464  -7.3464  -6.5136  -6.5136   4.3279   4.3279   5.3258   5.3258
     6.2082   6.2082   7.0222   7.0222   7.7164   7.7164   8.1231   8.1231

          k = 0.3440 0.3440 0.0000 (   920 PWs)   bands (ev):

   -46.4436 -46.4375 -23.1746 -23.1239 -22.9886 -22.9352 -22.8745 -22.8629
    -7.9862  -7.5747  -6.6835  -6.4889   3.7584   4.2901   5.5718   5.5739
     5.6573   6.6206   7.1197   7.6879   7.9407   8.0516   8.3784   8.9113

          k = 0.3440 0.3440 0.4005 (   927 PWs)   bands (ev):

   -46.4155 -46.4109 -23.1808 -23.1646 -23.0938 -23.0425 -22.9556 -22.9253
    -7.4591  -7.1589  -6.8421  -6.7857   4.4492   4.6665   4.8474   4.9441
     6.1530   6.7004   6.7088   7.3966   7.7042   7.8907   8.2597   8.7251

          k = 0.3440 0.3440-0.8010 (   914 PWs)   bands (ev):

   -46.3852 -46.3852 -23.4524 -23.4426 -22.9901 -22.9772 -22.9369 -22.9351
    -7.3572  -7.0827  -6.7877  -6.4904   4.1724   4.6455   4.9813   5.2058
     5.5589   6.4063   6.7917   6.9864   7.8675   8.1906   8.5564   8.7511

     highest occupied level (ev):     9.6998

!    total energy              =    -362.26208218 Ry
     estimated scf accuracy    <          1.5E-11 Ry

     The total energy is the sum of the following terms:
     one-electron contribution =    -119.63138645 Ry
     hartree contribution      =      83.48474679 Ry
     xc contribution           =     -56.37712490 Ry
     ewald contribution        =    -269.73831763 Ry

     convergence has been achieved in  27 iterations

     Forces acting on atoms (cartesian axes, Ry/au):

     atom    1 type  1   force =     0.00000000    0.00000000    0.00000000
     atom    2 type  1   force =     0.00000000    0.00000000   -0.00000000
     atom    3 type  2   force =     0.00285817    0.00285817    0.00000000
     atom    4 type  2   force =    -0.00285817   -0.00285817   -0.00000000
     atom    5 type  2   force =     0.00285817   -0.00285817   -0.00000000
     atom    6 type  2   force =    -0.00285817    0.00285817    0.00000000

     Total force =     0.008084     Total SCF correction =     0.000003


     Computing stress (Cartesian axis) and pressure

          total   stress  (Ry/bohr**3)                   (kbar)     P=       -0.80
  -0.00001416   0.00000000   0.00000000           -2.08        0.00        0.00
   0.00000000  -0.00001416   0.00000000            0.00       -2.08        0.00
   0.00000000   0.00000000   0.00001196            0.00        0.00        1.76

     Energy error            =      2.2E-04
     Gradient error          =      2.9E-03
     Cell gradient error     =      1.4E-05


     number of scf cycles    =   4
     number of bfgs steps    =   3

     enthalpy old            =    -362.2618642798 Ry
     enthalpy new            =    -362.2620821791 Ry

     CASE: enthalpy_new < enthalpy_old

     new trust radius        =       0.0070805489 bohr
WARNING! With ibrav=0, cell_dofree='ibrav' does not have any effect. 
     new conv_thr            =       0.0000000003 Ry

     new unit-cell volume =    397.47204 a.u.^3 (    58.89928 Ang^3 )
     density =      4.50325 g/cm^3

CELL_PARAMETERS (angstrom)
   4.503064046   0.000000000   0.000000000
   0.000000000   4.503064046   0.000000000
   0.000000000   0.000000000   2.904649511

ATOMIC_POSITIONS (crystal)
Ti            0.0000000000        0.0000000000       -0.0000000000
Ti            0.5000000000        0.5000000000        0.5000000000
O             0.3030728880        0.3030728880        0.0000000000
O             0.6969271120        0.6969271120       -0.0000000000
O             0.8030728880        0.1969271120        0.5000000000
O             0.1969271120        0.8030728880        0.5000000000



     Writing output data file ./tmp_tio2/tio2.save/
     NEW-OLD atomic charge density approx. for the potential
     extrapolated charge   47.97504, renormalised to   48.00000

     total cpu time spent up to now is       86.4 secs

     Self-consistent Calculation

     iteration #  1     ecut=    25.00 Ry     beta= 0.50
     Davidson diagonalization with overlap
     ethr =  1.00E-06,  avg # of iterations =  4.0

     total cpu time spent up to now is       87.3 secs

     total energy              =    -362.26209767 Ry
     estimated scf accuracy    <       0.00005578 Ry

     iteration #  2     ecut=    25.00 Ry     beta= 0.50
     Davidson diagonalization with overlap
     ethr =  1.16E-07,  avg # of iterations =  5.7

     total cpu time spent up to now is       88.4 secs

     total energy              =    -362.26215370 Ry
     estimated scf accuracy    <       0.00003351 Ry

     iteration #  3     ecut=    25.00 Ry     beta= 0.50
     Davidson diagonalization with overlap
     ethr =  6.98E-08,  avg # of iterations =  2.9

     total cpu time spent up to now is       89.0 secs

     total energy              =    -362.26215239 Ry
     estimated scf accuracy    <       0.00000744 Ry

     iteration #  4     ecut=    25.00 Ry     beta= 0.50
     Davidson diagonalization with overlap
     ethr =  1.55E-08,  avg # of iterations =  5.1

     total cpu time spent up to now is       89.9 secs

     total energy              =    -362.26215436 Ry
     estimated scf accuracy    <       0.00000330 Ry

     iteration #  5     ecut=    25.00 Ry     beta= 0.50
     Davidson diagonalization with overlap
     ethr =  6.87E-09,  avg # of iterations =  5.0

     total cpu time spent up to now is       90.8 secs

     total energy              =    -362.26215469 Ry
     estimated scf accuracy    <       0.00000343 Ry

     iteration #  6     ecut=    25.00 Ry     beta= 0.50
     Davidson diagonalization with overlap
     ethr =  6.87E-09,  avg # of iterations =  4.0

     total cpu time spent up to now is       91.6 secs

     total energy              =    -362.26215553 Ry
     estimated scf accuracy    <       0.00000039 Ry

     iteration #  7     ecut=    25.00 Ry     beta= 0.50
     Davidson diagonalization with overlap
     ethr =  8.10E-10,  avg # of iterations =  4.0

     total cpu time spent up to now is       92.3 secs

     total energy              =    -362.26215561 Ry
     estimated scf accuracy    <          9.2E-09 Ry

     iteration #  8     ecut=    25.00 Ry     beta= 0.50
     Davidson diagonalization with overlap
     ethr =  1.92E-11,  avg # of iterations =  5.3

     total cpu time spent up to now is       93.2 secs

     total energy              =    -362.26215562 Ry
     estimated scf accuracy    <          8.3E-09 Ry

     iteration #  9     ecut=    25.00 Ry     beta= 0.50
     Davidson diagonalization with overlap
     ethr =  1.74E-11,  avg # of iterations =  1.7

     total cpu time spent up to now is       93.8 secs

     total energy              =    -362.26215562 Ry
     estimated scf accuracy    <          2.7E-09 Ry

     iteration # 10     ecut=    25.00 Ry     beta= 0.50
     Davidson diagonalization with overlap
     ethr =  5.72E-12,  avg # of iterations =  4.6

     total cpu time spent up to now is       94.7 secs

     total energy              =    -362.26215562 Ry
     estimated scf accuracy    <          1.8E-09 Ry

     iteration # 11     ecut=    25.00 Ry     beta= 0.50
     Davidson diagonalization with overlap
     ethr =  3.73E-12,  avg # of iterations =  1.0

     total cpu time spent up to now is       95.2 secs

     total energy              =    -362.26215562 Ry
     estimated scf accuracy    <          1.3E-09 Ry

     iteration # 12     ecut=    25.00 Ry     beta= 0.50
     Davidson diagonalization with overlap
     ethr =  2.69E-12,  avg # of iterations =  4.4

     total cpu time spent up to now is       96.0 secs

     End of self-consistent calculation

          k = 0.0000 0.0000 0.0000 (   913 PWs)   bands (ev):

   -46.4393 -46.4142 -23.1472 -23.1472 -22.9299 -22.9299 -22.8804 -22.8342
    -8.5835  -7.2655  -6.3480  -6.3480   3.5499   3.9373   4.1897   5.6264
     5.6264   6.9709   6.9709   7.5891   8.9672   9.2030   9.2030   9.7003

          k = 0.0000 0.0000 0.4002 (   909 PWs)   bands (ev):

   -46.4088 -46.3900 -23.1662 -23.1365 -23.0691 -23.0691 -22.9176 -22.9176
    -7.9103  -6.9125  -6.6716  -6.6716   4.4140   4.5789   4.9446   5.2783
     5.2783   6.1378   7.0873   7.8156   7.8156   8.0928   8.0928   9.1097

          k = 0.0000 0.0000-0.8004 (   888 PWs)   bands (ev):

   -46.3713 -46.3713 -23.4314 -23.4314 -22.9713 -22.9713 -22.9233 -22.9233
    -6.9909  -6.9909  -6.8866  -6.8866   4.8671   4.8671   5.6036   5.6036
     5.8973   5.8973   6.8032   6.8032   6.9567   6.9567   8.2004   8.2004

          k = 0.0000 0.3442 0.0000 (   924 PWs)   bands (ev):

   -46.4335 -46.4206 -23.1009 -23.0969 -22.9859 -22.9817 -22.8687 -22.8457
    -8.1474  -7.3390  -6.6958  -6.5341   4.1598   4.3642   5.0822   5.6722
     5.6885   6.3736   6.6643   7.5223   7.6702   8.3227   8.7149   9.2501

          k = 0.0000 0.3442 0.4002 (   924 PWs)   bands (ev):

   -46.4043 -46.3949 -23.1799 -23.1618 -23.0274 -23.0168 -22.9522 -22.9445
    -7.6169  -7.0161  -6.8477  -6.7449   4.7602   4.9076   5.0711   5.1254
     6.0346   6.0614   6.2217   7.2310   7.3601   8.0737   8.4384   9.0013

          k = 0.0000 0.3442-0.8004 (   904 PWs)   bands (ev):

   -46.3716 -46.3716 -23.4435 -23.4435 -22.9604 -22.9604 -22.9228 -22.9228
    -7.3379  -7.3379  -6.5067  -6.5067   4.3350   4.3350   5.3502   5.3502
     6.2254   6.2254   7.0255   7.0255   7.7234   7.7234   8.1298   8.1298

          k = 0.3442 0.3442 0.0000 (   920 PWs)   bands (ev):

   -46.4300 -46.4238 -23.1617 -23.1112 -22.9743 -22.9212 -22.8628 -22.8512
    -7.9830  -7.5732  -6.6689  -6.4756   3.7615   4.2888   5.5588   5.5825
     5.6429   6.6357   7.1316   7.7013   7.9480   8.0613   8.3842   8.9271

          k = 0.3442 0.3442 0.4002 (   927 PWs)   bands (ev):

   -46.4019 -46.3973 -23.1693 -23.1535 -23.0804 -23.0297 -22.9420 -22.9118
    -7.4514  -7.1505  -6.8356  -6.7771   4.4556   4.6695   4.8521   4.9500
     6.1607   6.7061   6.7204   7.4132   7.7133   7.9108   8.2602   8.7278

          k = 0.3442 0.3442-0.8004 (   914 PWs)   bands (ev):

   -46.3717 -46.3717 -23.4417 -23.4320 -22.9744 -22.9616 -22.9258 -22.9240
    -7.3491  -7.0781  -6.7763  -6.4831   4.1789   4.6535   4.9951   5.2194
     5.5810   6.4149   6.8150   6.9901   7.8816   8.2018   8.5578   8.7600

     highest occupied level (ev):     9.7003

!    total energy              =    -362.26215562 Ry
     estimated scf accuracy    <          8.1E-11 Ry

     The total energy is the sum of the following terms:
     one-electron contribution =    -119.63346399 Ry
     hartree contribution      =      83.50576102 Ry
     xc contribution           =     -56.38195844 Ry
     ewald contribution        =    -269.75249421 Ry

     convergence has been achieved in  12 iterations

     Forces acting on atoms (cartesian axes, Ry/au):

     atom    1 type  1   force =     0.00000000    0.00000000    0.00000000
     atom    2 type  1   force =     0.00000000    0.00000000   -0.00000000
     atom    3 type  2   force =     0.00043481    0.00043481    0.00000000
     atom    4 type  2   force =    -0.00043481   -0.00043481   -0.00000000
     atom    5 type  2   force =     0.00043481   -0.00043481   -0.00000000
     atom    6 type  2   force =    -0.00043481    0.00043481    0.00000000

     Total force =     0.001230     Total SCF correction =     0.000002


     Computing stress (Cartesian axis) and pressure

          total   stress  (Ry/bohr**3)                   (kbar)     P=        2.27
   0.00001345   0.00000000   0.00000000            1.98        0.00        0.00
   0.00000000   0.00001345   0.00000000            0.00        1.98        0.00
   0.00000000   0.00000000   0.00001938            0.00        0.00        2.85

     Energy error            =      7.3E-05
     Gradient error          =      4.3E-04
     Cell gradient error     =      1.9E-05


     number of scf cycles    =   5
     number of bfgs steps    =   4

     enthalpy old            =    -362.2620821791 Ry
     enthalpy new            =    -362.2621556173 Ry

     CASE: enthalpy_new < enthalpy_old

     new trust radius        =       0.0014191051 bohr
WARNING! With ibrav=0, cell_dofree='ibrav' does not have any effect. 
     new conv_thr            =            1.0E-10 Ry

     new unit-cell volume =    397.69192 a.u.^3 (    58.93186 Ang^3 )
     density =      4.50076 g/cm^3

CELL_PARAMETERS (angstrom)
   4.503550631   0.000000000   0.000000000
   0.000000000   4.503550631   0.000000000
   0.000000000   0.000000000   2.905628344

ATOMIC_POSITIONS (crystal)
Ti            0.0000000000        0.0000000000       -0.0000000000
Ti            0.5000000000        0.5000000000        0.5000000000
O             0.3031908094        0.3031908094        0.0000000000
O             0.6968091906        0.6968091906       -0.0000000000
O             0.8031908094        0.1968091906        0.5000000000
O             0.1968091906        0.8031908094        0.5000000000



     Writing output data file ./tmp_tio2/tio2.save/
     NEW-OLD atomic charge density approx. for the potential
     extrapolated charge   48.02543, renormalised to   48.00000

     total cpu time spent up to now is       98.4 secs

     Self-consistent Calculation

     iteration #  1     ecut=    25.00 Ry     beta= 0.50
     Davidson diagonalization with overlap
     ethr =  1.00E-06,  avg # of iterations =  2.0

     Threshold (ethr) on eigenvalues was too large:
     Diagonalizing with lowered threshold

     Davidson diagonalization with overlap
     ethr =  5.06E-08,  avg # of iterations =  2.7

     total cpu time spent up to now is       99.6 secs

     total energy              =    -362.26212050 Ry
     estimated scf accuracy    <       0.00002876 Ry

     iteration #  2     ecut=    25.00 Ry     beta= 0.50
     Davidson diagonalization with overlap
     ethr =  5.99E-08,  avg # of iterations =  5.9

     total cpu time spent up to now is      100.7 secs

     total energy              =    -362.26215900 Ry
     estimated scf accuracy    <       0.00003816 Ry

     iteration #  3     ecut=    25.00 Ry     beta= 0.50
     Davidson diagonalization with overlap
     ethr =  5.99E-08,  avg # of iterations =  2.9

     total cpu time spent up to now is      101.4 secs

     total energy              =    -362.26215755 Ry
     estimated scf accuracy    <       0.00001106 Ry

     iteration #  4     ecut=    25.00 Ry     beta= 0.50
     Davidson diagonalization with overlap
     ethr =  2.30E-08,  avg # of iterations =  4.4

     total cpu time spent up to now is      102.1 secs

     total energy              =    -362.26216052 Ry
     estimated scf accuracy    <       0.00000263 Ry

     iteration #  5     ecut=    25.00 Ry     beta= 0.50
     Davidson diagonalization with overlap
     ethr =  5.48E-09,  avg # of iterations =  1.4

     total cpu time spent up to now is      102.7 secs

     total energy              =    -362.26215960 Ry
     estimated scf accuracy    <       0.00000227 Ry

     iteration #  6     ecut=    25.00 Ry     beta= 0.50
     Davidson diagonalization with overlap
     ethr =  4.74E-09,  avg # of iterations =  3.9

     total cpu time spent up to now is      103.4 secs

     total energy              =    -362.26216024 Ry
     estimated scf accuracy    <       0.00000062 Ry

     iteration #  7     ecut=    25.00 Ry     beta= 0.50
     Davidson diagonalization with overlap
     ethr =  1.30E-09,  avg # of iterations =  5.4

     total cpu time spent up to now is      104.3 secs

     total energy              =    -362.26215943 Ry
     estimated scf accuracy    <       0.00000457 Ry

     iteration #  8     ecut=    25.00 Ry     beta= 0.50
     Davidson diagonalization with overlap
     ethr =  1.30E-09,  avg # of iterations =  5.0

     total cpu time spent up to now is      105.3 secs

     total energy              =    -362.26215974 Ry
     estimated scf accuracy    <       0.00000017 Ry

     iteration #  9     ecut=    25.00 Ry     beta= 0.50
     Davidson diagonalization with overlap
     ethr =  3.61E-10,  avg # of iterations =  5.7

     total cpu time spent up to now is      106.3 secs

     total energy              =    -362.26215981 Ry
     estimated scf accuracy    <       0.00000094 Ry

     iteration # 10     ecut=    25.00 Ry     beta= 0.50
     Davidson diagonalization with overlap
     ethr =  3.61E-10,  avg # of iterations =  4.1

     total cpu time spent up to now is      107.2 secs

     total energy              =    -362.26215983 Ry
     estimated scf accuracy    <       0.00000016 Ry

     iteration # 11     ecut=    25.00 Ry     beta= 0.50
     Davidson diagonalization with overlap
     ethr =  3.37E-10,  avg # of iterations =  2.8

     total cpu time spent up to now is      107.8 secs

     total energy              =    -362.26215983 Ry
     estimated scf accuracy    <       0.00000004 Ry

     iteration # 12     ecut=    25.00 Ry     beta= 0.50
     Davidson diagonalization with overlap
     ethr =  8.58E-11,  avg # of iterations =  4.1

     total cpu time spent up to now is      108.6 secs

     total energy              =    -362.26215985 Ry
     estimated scf accuracy    <          5.1E-09 Ry

     iteration # 13     ecut=    25.00 Ry     beta= 0.50
     Davidson diagonalization with overlap
     ethr =  1.06E-11,  avg # of iterations =  1.8

     total cpu time spent up to now is      109.2 secs

     total energy              =    -362.26215985 Ry
     estimated scf accuracy    <          3.8E-09 Ry

     iteration # 14     ecut=    25.00 Ry     beta= 0.50
     Davidson diagonalization with overlap
     ethr =  7.95E-12,  avg # of iterations =  1.0

     total cpu time spent up to now is      109.7 secs

     total energy              =    -362.26215985 Ry
     estimated scf accuracy    <          3.6E-09 Ry

     iteration # 15     ecut=    25.00 Ry     beta= 0.50
     Davidson diagonalization with overlap
     ethr =  7.52E-12,  avg # of iterations =  4.0

     total cpu time spent up to now is      110.5 secs

     End of self-consistent calculation

          k = 0.0000 0.0000 0.0000 (   913 PWs)   bands (ev):

   -46.4491 -46.4242 -23.1563 -23.1563 -22.9394 -22.9394 -22.8905 -22.8445
    -8.5900  -7.2732  -6.3555  -6.3555   3.5431   3.9309   4.1865   5.6162
     5.6162   6.9637   6.9637   7.5802   8.9579   9.1953   9.1953   9.6900

          k = 0.0000 0.0000 0.4001 (   909 PWs)   bands (ev):

   -46.4188 -46.4000 -23.1758 -23.1461 -23.0783 -23.0783 -22.9272 -22.9272
    -7.9169  -6.9200  -6.6792  -6.6792   4.4069   4.5727   4.9408   5.2716
     5.2716   6.1301   7.0793   7.8064   7.8064   8.0865   8.0865   9.1018

          k = 0.0000 0.0000-0.8002 (   888 PWs)   bands (ev):

   -46.3814 -46.3814 -23.4405 -23.4405 -22.9803 -22.9803 -22.9335 -22.9335
    -6.9986  -6.9986  -6.8937  -6.8937   4.8620   4.8620   5.5980   5.5980
     5.8890   5.8890   6.7984   6.7984   6.9514   6.9514   8.1917   8.1917

          k = 0.0000 0.3442 0.0000 (   924 PWs)   bands (ev):

   -46.4433 -46.4305 -23.1102 -23.1062 -22.9951 -22.9910 -22.8789 -22.8559
    -8.1545  -7.3478  -6.7017  -6.5410   4.1520   4.3562   5.0776   5.6616
     5.6778   6.3691   6.6597   7.5158   7.6622   8.3146   8.7061   9.2404

          k = 0.0000 0.3442 0.4001 (   924 PWs)   bands (ev):

   -46.4143 -46.4049 -23.1894 -23.1713 -23.0368 -23.0263 -22.9617 -22.9540
    -7.6237  -7.0227  -6.8561  -6.7526   4.7542   4.9017   5.0644   5.1191
     6.0275   6.0531   6.2157   7.2246   7.3538   8.0657   8.4290   8.9922

          k = 0.0000 0.3442-0.8002 (   904 PWs)   bands (ev):

   -46.3817 -46.3817 -23.4525 -23.4525 -22.9694 -22.9694 -22.9329 -22.9329
    -7.3441  -7.3441  -6.5154  -6.5154   4.3297   4.3297   5.3469   5.3469
     6.2198   6.2198   7.0165   7.0165   7.7153   7.7153   8.1221   8.1221

          k = 0.3442 0.3442 0.0000 (   920 PWs)   bands (ev):

   -46.4399 -46.4337 -23.1707 -23.1205 -22.9836 -22.9307 -22.8730 -22.8614
    -7.9902  -7.5811  -6.6753  -6.4830   3.7551   4.2809   5.5486   5.5771
     5.6323   6.6297   7.1253   7.6949   7.9397   8.0538   8.3753   8.9201

          k = 0.3442 0.3442 0.4001 (   927 PWs)   bands (ev):

   -46.4119 -46.4073 -23.1787 -23.1631 -23.0896 -23.0391 -22.9515 -22.9215
    -7.4584  -7.1576  -6.8434  -6.7846   4.4490   4.6633   4.8458   4.9429
     6.1537   6.6983   6.7147   7.4067   7.7063   7.9049   8.2507   8.7185

          k = 0.3442 0.3442-0.8002 (   914 PWs)   bands (ev):

   -46.3818 -46.3818 -23.4507 -23.4411 -22.9833 -22.9705 -22.9359 -22.9341
    -7.3554  -7.0857  -6.7835  -6.4918   4.1736   4.6484   4.9895   5.2134
     5.5775   6.4079   6.8100   6.9807   7.8759   8.1947   8.5481   8.7520

     highest occupied level (ev):     9.6900

!    total energy              =    -362.26215985 Ry
     estimated scf accuracy    <          1.0E-11 Ry

     The total energy is the sum of the following terms:
     one-electron contribution =    -119.72216870 Ry
     hartree contribution      =      83.53456142 Ry
     xc contribution           =     -56.37965431 Ry
     ewald contribution        =    -269.69489826 Ry

     convergence has been achieved in  15 iterations

     Forces acting on atoms (cartesian axes, Ry/au):

     atom    1 type  1   force =     0.00000000    0.00000000    0.00000000
     atom    2 type  1   force =     0.00000000    0.00000000   -0.00000000
     atom    3 type  2   force =     0.00002785    0.00002785   -0.00000000
     atom    4 type  2   force =    -0.00002785   -0.00002785   -0.00000000
     atom    5 type  2   force =     0.00002785   -0.00002785    0.00000000
     atom    6 type  2   force =    -0.00002785    0.00002785    0.00000000

     Total force =     0.000079     Total SCF correction =     0.000003


     Computing stress (Cartesian axis) and pressure

          total   stress  (Ry/bohr**3)                   (kbar)     P=        0.68
   0.00000476   0.00000000   0.00000000            0.70        0.00        0.00
   0.00000000   0.00000476   0.00000000            0.00        0.70        0.00
   0.00000000   0.00000000   0.00000433            0.00        0.00        0.64

     Energy error            =      4.2E-06
     Gradient error          =      2.8E-05
     Cell gradient error     =      4.8E-06


     number of scf cycles    =   6
     number of bfgs steps    =   5

     enthalpy old            =    -362.2621556173 Ry
     enthalpy new            =    -362.2621598503 Ry

     CASE: enthalpy_new < enthalpy_old

     new trust radius        =       0.0002966637 bohr
WARNING! With ibrav=0, cell_dofree='ibrav' does not have any effect. 
     new conv_thr            =            1.0E-10 Ry

     new unit-cell volume =    397.77379 a.u.^3 (    58.94399 Ang^3 )
     density =      4.49983 g/cm^3

CELL_PARAMETERS (angstrom)
   4.503885609   0.000000000   0.000000000
   0.000000000   4.503885609   0.000000000
   0.000000000   0.000000000   2.905794249

ATOMIC_POSITIONS (crystal)
Ti            0.0000000000        0.0000000000       -0.0000000000
Ti            0.5000000000        0.5000000000        0.5000000000
O             0.3032036832        0.3032036832        0.0000000000
O             0.6967963168        0.6967963168       -0.0000000000
O             0.8032036832        0.1967963168        0.5000000000
O             0.1967963168        0.8032036832        0.5000000000



     Writing output data file ./tmp_tio2/tio2.save/
     NEW-OLD atomic charge density approx. for the potential
     extrapolated charge   48.00947, renormalised to   48.00000

     total cpu time spent up to now is      112.8 secs

     Self-consistent Calculation

     iteration #  1     ecut=    25.00 Ry     beta= 0.50
     Davidson diagonalization with overlap
     ethr =  1.00E-06,  avg # of iterations =  2.0

     Threshold (ethr) on eigenvalues was too large:
     Diagonalizing with lowered threshold

     Davidson diagonalization with overlap
     ethr =  6.87E-09,  avg # of iterations =  2.1

     total cpu time spent up to now is      114.0 secs

     total energy              =    -362.26215465 Ry
     estimated scf accuracy    <       0.00000395 Ry

     iteration #  2     ecut=    25.00 Ry     beta= 0.50
     Davidson diagonalization with overlap
     ethr =  8.22E-09,  avg # of iterations =  5.8

     total cpu time spent up to now is      115.1 secs

     total energy              =    -362.26216005 Ry
     estimated scf accuracy    <       0.00000424 Ry

     iteration #  3     ecut=    25.00 Ry     beta= 0.50
     Davidson diagonalization with overlap
     ethr =  8.22E-09,  avg # of iterations =  1.9

     total cpu time spent up to now is      115.6 secs

     total energy              =    -362.26215974 Ry
     estimated scf accuracy    <       0.00000134 Ry

     iteration #  4     ecut=    25.00 Ry     beta= 0.50
     Davidson diagonalization with overlap
     ethr =  2.79E-09,  avg # of iterations =  4.7

     total cpu time spent up to now is      116.4 secs

     total energy              =    -362.26216014 Ry
     estimated scf accuracy    <       0.00000038 Ry

     iteration #  5     ecut=    25.00 Ry     beta= 0.50
     Davidson diagonalization with overlap
     ethr =  7.86E-10,  avg # of iterations =  3.6

     total cpu time spent up to now is      117.0 secs

     total energy              =    -362.26216002 Ry
     estimated scf accuracy    <       0.00000031 Ry

     iteration #  6     ecut=    25.00 Ry     beta= 0.50
     Davidson diagonalization with overlap
     ethr =  6.42E-10,  avg # of iterations =  4.2

     total cpu time spent up to now is      117.8 secs

     total energy              =    -362.26216009 Ry
     estimated scf accuracy    <       0.00000017 Ry

     iteration #  7     ecut=    25.00 Ry     beta= 0.50
     Davidson diagonalization with overlap
     ethr =  3.54E-10,  avg # of iterations =  2.0

     total cpu time spent up to now is      118.4 secs

     total energy              =    -362.26216003 Ry
     estimated scf accuracy    <       0.00000021 Ry

     iteration #  8     ecut=    25.00 Ry     beta= 0.50
     Davidson diagonalization with overlap
     ethr =  3.54E-10,  avg # of iterations =  3.7

     total cpu time spent up to now is      119.1 secs

     total energy              =    -362.26216004 Ry
     estimated scf accuracy    <       0.00000002 Ry

     iteration #  9     ecut=    25.00 Ry     beta= 0.50
     Davidson diagonalization with overlap
     ethr =  3.60E-11,  avg # of iterations =  5.1

     total cpu time spent up to now is      120.1 secs

     total energy              =    -362.26216006 Ry
     estimated scf accuracy    <       0.00000002 Ry

     iteration # 10     ecut=    25.00 Ry     beta= 0.50
     Davidson diagonalization with overlap
     ethr =  3.60E-11,  avg # of iterations =  1.0

     total cpu time spent up to now is      120.6 secs

     total energy              =    -362.26216005 Ry
     estimated scf accuracy    <       0.00000002 Ry

     iteration # 11     ecut=    25.00 Ry     beta= 0.50
     Davidson diagonalization with overlap
     ethr =  3.60E-11,  avg # of iterations =  4.4

     total cpu time spent up to now is      121.4 secs

     total energy              =    -362.26216006 Ry
     estimated scf accuracy    <          3.8E-10 Ry

     iteration # 12     ecut=    25.00 Ry     beta= 0.50
     Davidson diagonalization with overlap
     ethr =  7.99E-13,  avg # of iterations =  6.7

     total cpu time spent up to now is      122.6 secs

     total energy              =    -362.26216006 Ry
     estimated scf accuracy    <       0.00000001 Ry

     iteration # 13     ecut=    25.00 Ry     beta= 0.50
     Davidson diagonalization with overlap
     ethr =  7.99E-13,  avg # of iterations =  4.0

     total cpu time spent up to now is      123.3 secs

     total energy              =    -362.26216006 Ry
     estimated scf accuracy    <          8.5E-09 Ry

     iteration # 14     ecut=    25.00 Ry     beta= 0.50
     Davidson diagonalization with overlap
     ethr =  7.99E-13,  avg # of iterations =  5.7

     total cpu time spent up to now is      124.3 secs

     total energy              =    -362.26216006 Ry
     estimated scf accuracy    <          7.9E-10 Ry

     iteration # 15     ecut=    25.00 Ry     beta= 0.50
     Davidson diagonalization with overlap
     ethr =  7.99E-13,  avg # of iterations =  2.0

     total cpu time spent up to now is      125.0 secs

     total energy              =    -362.26216006 Ry
     estimated scf accuracy    <          3.1E-10 Ry

     iteration # 16     ecut=    25.00 Ry     beta= 0.50
     Davidson diagonalization with overlap
     ethr =  6.55E-13,  avg # of iterations =  4.0

     total cpu time spent up to now is      125.7 secs

     total energy              =    -362.26216006 Ry
     estimated scf accuracy    <          1.1E-10 Ry

     iteration # 17     ecut=    25.00 Ry     beta= 0.50
     Davidson diagonalization with overlap
     ethr =  2.29E-13,  avg # of iterations =  4.0

     total cpu time spent up to now is      126.4 secs

     End of self-consistent calculation

          k = 0.0000 0.0000 0.0000 (   913 PWs)   bands (ev):

   -46.4530 -46.4281 -23.1599 -23.1599 -22.9431 -22.9431 -22.8944 -22.8483
    -8.5923  -7.2758  -6.3586  -6.3586   3.5407   3.9287   4.1849   5.6134
     5.6134   6.9607   6.9607   7.5773   8.9547   9.1921   9.1921   9.6865

          k = 0.0000 0.0000 0.4001 (   909 PWs)   bands (ev):

   -46.4227 -46.4039 -23.1795 -23.1498 -23.0820 -23.0820 -22.9310 -22.9310
    -7.9194  -6.9227  -6.6822  -6.6822   4.4044   4.5704   4.9391   5.2691
     5.2691   6.1273   7.0763   7.8032   7.8032   8.0835   8.0835   9.0989

          k = 0.0000 0.0000-0.8001 (   888 PWs)   bands (ev):

   -46.3853 -46.3853 -23.4440 -23.4440 -22.9839 -22.9839 -22.9373 -22.9373
    -7.0014  -7.0014  -6.8964  -6.8964   4.8597   4.8597   5.5957   5.5957
     5.8860   5.8860   6.7955   6.7955   6.9492   6.9492   8.1884   8.1884

          k = 0.0000 0.3441 0.0000 (   924 PWs)   bands (ev):

   -46.4472 -46.4344 -23.1138 -23.1099 -22.9988 -22.9947 -22.8827 -22.8598
    -8.1570  -7.3507  -6.7044  -6.5439   4.1494   4.3536   5.0755   5.6588
     5.6750   6.3667   6.6570   7.5129   7.6595   8.3116   8.7030   9.2371

          k = 0.0000 0.3441 0.4001 (   924 PWs)   bands (ev):

   -46.4182 -46.4088 -23.1930 -23.1749 -23.0405 -23.0300 -22.9654 -22.9577
    -7.6263  -7.0254  -6.8590  -6.7555   4.7517   4.8995   5.0619   5.1166
     6.0248   6.0504   6.2132   7.2218   7.3510   8.0626   8.4258   8.9890

          k = 0.0000 0.3441-0.8001 (   904 PWs)   bands (ev):

   -46.3856 -46.3856 -23.4560 -23.4560 -22.9731 -22.9731 -22.9367 -22.9367
    -7.3467  -7.3467  -6.5186  -6.5186   4.3276   4.3276   5.3446   5.3446
     6.2171   6.2171   7.0134   7.0134   7.7122   7.7122   8.1193   8.1193

          k = 0.3441 0.3441 0.0000 (   920 PWs)   bands (ev):

   -46.4437 -46.4376 -23.1743 -23.1241 -22.9873 -22.9345 -22.8768 -22.8653
    -7.9927  -7.5838  -6.6781  -6.4860   3.7528   4.2783   5.5459   5.5749
     5.6295   6.6269   7.1225   7.6921   7.9369   8.0507   8.3722   8.9170

          k = 0.3441 0.3441 0.4001 (   927 PWs)   bands (ev):

   -46.4158 -46.4112 -23.1824 -23.1668 -23.0932 -23.0428 -22.9552 -22.9252
    -7.4610  -7.1603  -6.8463  -6.7875   4.4466   4.6610   4.8435   4.9403
     6.1510   6.6954   6.7122   7.4038   7.7034   7.9020   8.2474   8.7153

          k = 0.3441 0.3441-0.8001 (   914 PWs)   bands (ev):

   -46.3857 -46.3857 -23.4543 -23.4446 -22.9870 -22.9742 -22.9398 -22.9380
    -7.3579  -7.0885  -6.7863  -6.4950   4.1715   4.6463   4.9869   5.2109
     5.5752   6.4051   6.8070   6.9774   7.8733   8.1918   8.5447   8.7490

     highest occupied level (ev):     9.6865

!    total energy              =    -362.26216006 Ry
     estimated scf accuracy    <          8.0E-13 Ry

     The total energy is the sum of the following terms:
     one-electron contribution =    -119.75297365 Ry
     hartree contribution      =      83.54390856 Ry
     xc contribution           =     -56.37870532 Ry
     ewald contribution        =    -269.67438965 Ry

     convergence has been achieved in  17 iterations

     Forces acting on atoms (cartesian axes, Ry/au):

     atom    1 type  1   force =     0.00000000    0.00000000    0.00000000
     atom    2 type  1   force =     0.00000000    0.00000000    0.00000000
     atom    3 type  2   force =    -0.00000121   -0.00000121   -0.00000000
     atom    4 type  2   force =     0.00000121    0.00000121    0.00000000
     atom    5 type  2   force =    -0.00000121    0.00000121    0.00000000
     atom    6 type  2   force =     0.00000121   -0.00000121    0.00000000

     Total force =     0.000003     Total SCF correction =     0.000000


     Computing stress (Cartesian axis) and pressure

          total   stress  (Ry/bohr**3)                   (kbar)     P=        0.02
   0.00000034   0.00000000   0.00000000            0.05        0.00        0.00
   0.00000000   0.00000034   0.00000000            0.00        0.05        0.00
   0.00000000   0.00000000  -0.00000034            0.00        0.00       -0.05

     Energy error            =      2.1E-07
     Gradient error          =      1.2E-06
     Cell gradient error     =      3.4E-07

WARNING! With ibrav=0, cell_dofree='ibrav' does not have any effect. 

     bfgs converged in   7 scf cycles and   6 bfgs steps
     (criteria: energy <  1.0E-05 Ry, force <  1.0E-03Ry/Bohr, cell <  5.0E-01kbar)

     End of BFGS Geometry Optimization

     Final enthalpy =    -362.2621600566 Ry

     File ./tmp_tio2/tio2.bfgs deleted, as requested
Begin final coordinates
     new unit-cell volume =    397.77379 a.u.^3 (    58.94399 Ang^3 )
     density =      4.49983 g/cm^3

CELL_PARAMETERS (angstrom)
   4.503885609   0.000000000   0.000000000
   0.000000000   4.503885609   0.000000000
   0.000000000   0.000000000   2.905794249

ATOMIC_POSITIONS (crystal)
Ti            0.0000000000        0.0000000000       -0.0000000000
Ti            0.5000000000        0.5000000000        0.5000000000
O             0.3032036832        0.3032036832        0.0000000000
O             0.6967963168        0.6967963168       -0.0000000000
O             0.8032036832        0.1967963168        0.5000000000
O             0.1967963168        0.8032036832        0.5000000000
End final coordinates



     Writing output data file ./tmp_tio2/tio2.save/

     Final scf calculation at the relaxed structure.
     The G-vectors are recalculated for the final unit cell
     Results may differ from those at the preceding step.

     G-vector sticks info
     --------------------
     sticks:   dense  smooth     PW     G-vecs:    dense   smooth      PW
     Sum        1153     577    185                19025     6753    1217



     bravais-lattice index     =            0
     lattice parameter (alat)  =       8.7872  a.u.
     unit-cell volume          =     397.7738 (a.u.)^3
     number of atoms/cell      =            6
     number of atomic types    =            2
     number of electrons       =        48.00
     number of Kohn-Sham states=           24
     kinetic-energy cutoff     =      25.0000  Ry
     charge density cutoff     =     200.0000  Ry
     scf convergence threshold =      1.0E-10
     mixing beta               =       0.5000
     number of iterations used =            8  plain     mixing
     press convergence thresh. =      5.0E-01
     Exchange-correlation= SLA  PZ   NOGX NOGC
                           (   1   1   0   0   0   0   0)

     celldm(1)=   8.787226  celldm(2)=   0.000000  celldm(3)=   0.000000
     celldm(4)=   0.000000  celldm(5)=   0.000000  celldm(6)=   0.000000

     crystal axes: (cart. coord. in units of alat)
               a(1) = (   0.968578   0.000000   0.000000 )  
               a(2) = (   0.000000   0.968578   0.000000 )  
               a(3) = (   0.000000   0.000000   0.624902 )  

     reciprocal axes: (cart. coord. in units 2 pi/alat)
               b(1) = (  1.032442  0.000000  0.000000 )  
               b(2) = (  0.000000  1.032442  0.000000 )  
               b(3) = (  0.000000  0.000000  1.600251 )  


     PseudoPot. # 1 for Ti read from file:
     ../pseudo/Ti.pz-sp-van_ak.UPF
     MD5 check sum: 7ddca99569c339adc469bfdf6fc17fa5
     Pseudo is Ultrasoft, Zval = 12.0
     Generated by new atomic code, or converted to UPF format
     Using radial grid of  851 points,  6 beta functions with: 
                l(1) =   0
                l(2) =   0
                l(3) =   1
                l(4) =   1
                l(5) =   2
                l(6) =   2
     Q(r) pseudized with  8 coefficients,  rinner =    1.000   1.000   1.000
                                                       1.000   1.000

     PseudoPot. # 2 for O  read from file:
     ../pseudo/O.pz-van_ak.UPF
     MD5 check sum: 97949a9452a8f4f33f872c7ca5f0ab16
     Pseudo is Ultrasoft, Zval =  6.0
     Generated by new atomic code, or converted to UPF format
     Using radial grid of  737 points,  4 beta functions with: 
                l(1) =   0
                l(2) =   0
                l(3) =   1
                l(4) =   1
     Q(r) pseudized with  8 coefficients,  rinner =    0.800   0.800   0.800


     atomic species   valence    mass     pseudopotential
        Ti            12.00    47.86700     Ti( 1.00)
        O              6.00    15.99900     O ( 1.00)

     16 Sym. Ops., with inversion, found ( 8 have fractional translation)



   Cartesian axes

     site n.     atom                  positions (alat units)
         1           Ti  tau(   1) = (   0.0000000   0.0000000  -0.0000000  )
         2           Ti  tau(   2) = (   0.4842888   0.4842888   0.3124510  )
         3           O   tau(   3) = (   0.2936763   0.2936763   0.0000000  )
         4           O   tau(   4) = (   0.6749013   0.6749013  -0.0000000  )
         5           O   tau(   5) = (   0.7779651   0.1906125   0.3124510  )
         6           O   tau(   6) = (   0.1906125   0.7779651   0.3124510  )

     number of k points=     9
                       cart. coord. in units 2pi/alat
        k(    1) = (   0.0000000   0.0000000   0.0000000), wk =   0.0555556
        k(    2) = (   0.0000000   0.0000000   0.4000627), wk =   0.1111111
        k(    3) = (   0.0000000   0.0000000  -0.8001255), wk =   0.0555556
        k(    4) = (   0.0000000   0.3441473   0.0000000), wk =   0.2222222
        k(    5) = (   0.0000000   0.3441473   0.4000627), wk =   0.4444444
        k(    6) = (   0.0000000   0.3441473  -0.8001255), wk =   0.2222222
        k(    7) = (   0.3441473   0.3441473   0.0000000), wk =   0.2222222
        k(    8) = (   0.3441473   0.3441473   0.4000627), wk =   0.4444444
        k(    9) = (   0.3441473   0.3441473  -0.8001255), wk =   0.2222222

     Dense  grid:    19025 G-vectors     FFT dimensions: (  40,  40,  30)

     Smooth grid:     6753 G-vectors     FFT dimensions: (  30,  30,  18)

     Estimated max dynamical RAM per process >      78.85 MB

     Initial potential from superposition of free atoms

     starting charge   45.99992, renormalised to   48.00000
     Starting wfcs are   36 randomized atomic wfcs

     total cpu time spent up to now is      129.1 secs

     Self-consistent Calculation

     iteration #  1     ecut=    25.00 Ry     beta= 0.50
     Davidson diagonalization with overlap
     ethr =  1.00E-06,  avg # of iterations =  9.7

     total cpu time spent up to now is      130.8 secs

     total energy              =    -361.81577161 Ry
     estimated scf accuracy    <       1.05761277 Ry

     iteration #  2     ecut=    25.00 Ry     beta= 0.50
     Davidson diagonalization with overlap
     ethr =  2.20E-03,  avg # of iterations =  5.3

     total cpu time spent up to now is      131.8 secs

     total energy              =    -361.85780434 Ry
     estimated scf accuracy    <       2.04335720 Ry

     iteration #  3     ecut=    25.00 Ry     beta= 0.50
     Davidson diagonalization with overlap
     ethr =  2.20E-03,  avg # of iterations =  4.0

     total cpu time spent up to now is      132.5 secs

     total energy              =    -362.22831737 Ry
     estimated scf accuracy    <       0.04708992 Ry

     iteration #  4     ecut=    25.00 Ry     beta= 0.50
     Davidson diagonalization with overlap
     ethr =  9.81E-05,  avg # of iterations =  3.9

     total cpu time spent up to now is      133.2 secs

     total energy              =    -362.23727013 Ry
     estimated scf accuracy    <       0.00130170 Ry

     iteration #  5     ecut=    25.00 Ry     beta= 0.50
     Davidson diagonalization with overlap
     ethr =  2.71E-06,  avg # of iterations =  5.8

     total cpu time spent up to now is      134.1 secs

     total energy              =    -362.23857518 Ry
     estimated scf accuracy    <       0.00221826 Ry

     iteration #  6     ecut=    25.00 Ry     beta= 0.50
     Davidson diagonalization with overlap
     ethr =  2.71E-06,  avg # of iterations =  4.0

     total cpu time spent up to now is      134.8 secs

     total energy              =    -362.23894984 Ry
     estimated scf accuracy    <       0.00000930 Ry

     iteration #  7     ecut=    25.00 Ry     beta= 0.50
     Davidson diagonalization with overlap
     ethr =  1.94E-08,  avg # of iterations =  6.4

     total cpu time spent up to now is      135.9 secs

     total energy              =    -362.23896402 Ry
     estimated scf accuracy    <       0.00007994 Ry

     iteration #  8     ecut=    25.00 Ry     beta= 0.50
     Davidson diagonalization with overlap
     ethr =  1.94E-08,  avg # of iterations =  5.0

     total cpu time spent up to now is      136.7 secs

     total energy              =    -362.23896351 Ry
     estimated scf accuracy    <       0.00001518 Ry

     iteration #  9     ecut=    25.00 Ry     beta= 0.50
     Davidson diagonalization with overlap
     ethr =  1.94E-08,  avg # of iterations =  4.4

     total cpu time spent up to now is      137.4 secs

     total energy              =    -362.23896577 Ry
     estimated scf accuracy    <       0.00000034 Ry

     iteration # 10     ecut=    25.00 Ry     beta= 0.50
     Davidson diagonalization with overlap
     ethr =  6.99E-10,  avg # of iterations =  5.8

     total cpu time spent up to now is      138.4 secs

     total energy              =    -362.23896615 Ry
     estimated scf accuracy    <       0.00000092 Ry

     iteration # 11     ecut=    25.00 Ry     beta= 0.50
     Davidson diagonalization with overlap
     ethr =  6.99E-10,  avg # of iterations =  4.0

     total cpu time spent up to now is      139.0 secs

     total energy              =    -362.23896613 Ry
     estimated scf accuracy    <       0.00000018 Ry

     iteration # 12     ecut=    25.00 Ry     beta= 0.50
     Davidson diagonalization with overlap
     ethr =  3.77E-10,  avg # of iterations =  4.1

     total cpu time spent up to now is      139.8 secs

     total energy              =    -362.23896620 Ry
     estimated scf accuracy    <       0.00000005 Ry

     iteration # 13     ecut=    25.00 Ry     beta= 0.50
     Davidson diagonalization with overlap
     ethr =  9.65E-11,  avg # of iterations =  1.8

     total cpu time spent up to now is      140.4 secs

     total energy              =    -362.23896620 Ry
     estimated scf accuracy    <       0.00000002 Ry

     iteration # 14     ecut=    25.00 Ry     beta= 0.50
     Davidson diagonalization with overlap
     ethr =  3.58E-11,  avg # of iterations =  4.0

     total cpu time spent up to now is      141.1 secs

     total energy              =    -362.23896620 Ry
     estimated scf accuracy    <          1.2E-09 Ry

     iteration # 15     ecut=    25.00 Ry     beta= 0.50
     Davidson diagonalization with overlap
     ethr =  2.48E-12,  avg # of iterations =  4.7

     total cpu time spent up to now is      141.8 secs

     total energy              =    -362.23896620 Ry
     estimated scf accuracy    <          8.2E-10 Ry

     iteration # 16     ecut=    25.00 Ry     beta= 0.50
     Davidson diagonalization with overlap
     ethr =  1.71E-12,  avg # of iterations =  1.8

     total cpu time spent up to now is      142.3 secs

     total energy              =    -362.23896620 Ry
     estimated scf accuracy    <          2.4E-10 Ry

     iteration # 17     ecut=    25.00 Ry     beta= 0.50
     Davidson diagonalization with overlap
     ethr =  4.90E-13,  avg # of iterations =  4.3

     total cpu time spent up to now is      143.1 secs

     total energy              =    -362.23896620 Ry
     estimated scf accuracy    <          1.2E-10 Ry

     iteration # 18     ecut=    25.00 Ry     beta= 0.50
     Davidson diagonalization with overlap
     ethr =  2.47E-13,  avg # of iterations =  1.0

     total cpu time spent up to now is      143.6 secs

     total energy              =    -362.23896620 Ry
     estimated scf accuracy    <          1.0E-10 Ry

     iteration # 19     ecut=    25.00 Ry     beta= 0.50
     Davidson diagonalization with overlap
     ethr =  2.09E-13,  avg # of iterations =  1.9

     total cpu time spent up to now is      144.1 secs

     End of self-consistent calculation

          k = 0.0000 0.0000 0.0000 (   825 PWs)   bands (ev):

   -46.4566 -46.4323 -23.1660 -23.1660 -22.9492 -22.9492 -22.9000 -22.8540
    -8.6017  -7.2869  -6.3710  -6.3710   3.5402   3.9439   4.1833   5.6270
     5.6270   6.9571   6.9571   7.5842   8.9627   9.1996   9.1996   9.6949

          k = 0.0000 0.0000 0.4001 (   845 PWs)   bands (ev):

   -46.4263 -46.4093 -23.1850 -23.1552 -23.0881 -23.0881 -22.9370 -22.9370
    -7.9296  -6.9343  -6.6942  -6.6942   4.4018   4.5785   4.9361   5.2672
     5.2672   6.1200   7.0745   7.8000   7.8000   8.0813   8.0813   9.1023

          k = 0.0000 0.0000-0.8001 (   840 PWs)   bands (ev):

   -46.3902 -46.3902 -23.4494 -23.4494 -22.9900 -22.9900 -22.9436 -22.9436
    -7.0129  -7.0129  -6.9079  -6.9079   4.8616   4.8616   5.5941   5.5941
     5.8869   5.8869   6.7933   6.7933   6.9465   6.9465   8.1798   8.1798

          k = 0.0000 0.3441 0.0000 (   842 PWs)   bands (ev):

   -46.4511 -46.4385 -23.1199 -23.1159 -23.0048 -23.0007 -22.8883 -22.8653
    -8.1670  -7.3615  -6.7161  -6.5559   4.1517   4.3597   5.0795   5.6581
     5.6831   6.3614   6.6531   7.5128   7.6546   8.3126   8.7112   9.2431

          k = 0.0000 0.3441 0.4001 (   846 PWs)   bands (ev):

   -46.4220 -46.4134 -23.1984 -23.1804 -23.0465 -23.0359 -22.9713 -22.9635
    -7.6369  -7.0368  -6.8705  -6.7672   4.7488   4.8979   5.0662   5.1178
     6.0288   6.0488   6.2125   7.2189   7.3471   8.0641   8.4269   8.9895

          k = 0.0000 0.3441-0.8001 (   840 PWs)   bands (ev):

   -46.3902 -46.3902 -23.4614 -23.4614 -22.9790 -22.9790 -22.9429 -22.9429
    -7.3577  -7.3577  -6.5306  -6.5306   4.3259   4.3259   5.3458   5.3458
     6.2140   6.2140   7.0113   7.0113   7.7131   7.7131   8.1148   8.1148

          k = 0.3441 0.3441 0.0000 (   854 PWs)   bands (ev):

   -46.4478 -46.4424 -23.1803 -23.1303 -22.9932 -22.9406 -22.8823 -22.8708
    -8.0032  -7.5946  -6.6899  -6.4981   3.7515   4.2811   5.5537   5.5723
     5.6357   6.6269   7.1166   7.6904   7.9306   8.0464   8.3689   8.9170

          k = 0.3441 0.3441 0.4001 (   835 PWs)   bands (ev):

   -46.4198 -46.4145 -23.1878 -23.1722 -23.0992 -23.0487 -22.9612 -22.9313
    -7.4719  -7.1715  -6.8579  -6.7992   4.4473   4.6620   4.8460   4.9425
     6.1599   6.7011   6.7127   7.4052   7.7013   7.9022   8.2575   8.7250

          k = 0.3441 0.3441-0.8001 (   830 PWs)   bands (ev):

   -46.3897 -46.3896 -23.4596 -23.4498 -22.9930 -22.9802 -22.9457 -22.9441
    -7.3691  -7.0996  -6.7981  -6.5070   4.1683   4.6463   4.9814   5.2166
     5.5825   6.4064   6.8136   6.9778   7.8771   8.1979   8.5470   8.7542

     highest occupied level (ev):     9.6949

!    total energy              =    -362.23896620 Ry
     estimated scf accuracy    <          3.0E-11 Ry

     The total energy is the sum of the following terms:
     one-electron contribution =    -119.70029277 Ry
     hartree contribution      =      83.50704389 Ry
     xc contribution           =     -56.37132765 Ry
     ewald contribution        =    -269.67438966 Ry

     convergence has been achieved in  19 iterations

     Forces acting on atoms (cartesian axes, Ry/au):

     atom    1 type  1   force =     0.00000000    0.00000000    0.00000000
     atom    2 type  1   force =     0.00000000    0.00000000    0.00000000
     atom    3 type  2   force =     0.00045567    0.00045567    0.00000000
     atom    4 type  2   force =    -0.00045567   -0.00045567   -0.00000000
     atom    5 type  2   force =     0.00045567   -0.00045567    0.00000000
     atom    6 type  2   force =    -0.00045567    0.00045567   -0.00000000

     Total force =     0.001289     Total SCF correction =     0.000002


     Computing stress (Cartesian axis) and pressure

          total   stress  (Ry/bohr**3)                   (kbar)     P=      -70.69
  -0.00048208   0.00000000   0.00000000          -70.92        0.00        0.00
   0.00000000  -0.00048208   0.00000000            0.00      -70.92        0.00
   0.00000000   0.00000000  -0.00047746            0.00        0.00      -70.24


     Writing output data file ./tmp_tio2/tio2.save/

     init_run     :      2.31s CPU      2.38s WALL (       2 calls)
     electrons    :    118.08s CPU    126.00s WALL (       8 calls)
     update_pot   :      4.17s CPU      4.18s WALL (       6 calls)
     forces       :      3.26s CPU      3.45s WALL (       8 calls)
     stress       :      8.58s CPU      9.05s WALL (       8 calls)

     Called by init_run:
     wfcinit      :      0.46s CPU      0.46s WALL (       2 calls)
     potinit      :      0.53s CPU      0.53s WALL (       2 calls)
     hinit0       :      1.23s CPU      1.23s WALL (       2 calls)

     Called by electrons:
     c_bands      :     92.61s CPU     92.99s WALL (     164 calls)
     sum_band     :     16.89s CPU     21.08s WALL (     164 calls)
     v_of_rho     :      0.42s CPU      0.42s WALL (     170 calls)
     newd         :      7.88s CPU     11.40s WALL (     170 calls)
     mix_rho      :      0.44s CPU      0.44s WALL (     164 calls)

     Called by c_bands:
     init_us_2    :      0.95s CPU      0.96s WALL (    3114 calls)
     cegterg      :     87.82s CPU     88.17s WALL (    1477 calls)

     Called by *egterg:
     cdiaghg      :      4.30s CPU      4.31s WALL (    6833 calls)
     h_psi        :     46.17s CPU     46.43s WALL (    6924 calls)
     s_psi        :      9.69s CPU      9.72s WALL (    6924 calls)
     g_psi        :      0.63s CPU      0.63s WALL (    5429 calls)

     Called by h_psi:
     h_psi:calbec :      9.27s CPU      9.33s WALL (    6924 calls)
     vloc_psi     :     27.02s CPU     27.18s WALL (    6924 calls)
     add_vuspsi   :      9.70s CPU      9.74s WALL (    6924 calls)

     General routines
     calbec       :     13.06s CPU     13.15s WALL (    8760 calls)
     fft          :      0.64s CPU      0.65s WALL (    1052 calls)
     ffts         :      0.07s CPU      0.07s WALL (     334 calls)
     fftw         :     27.42s CPU     27.61s WALL (  249082 calls)
     interpolate  :      0.14s CPU      0.15s WALL (     170 calls)

     Parallel routines

     PWSCF        :   2m16.80s CPU   2m25.59s WALL


   This run was terminated on:  18:36: 2  30Sep2026            

=------------------------------------------------------------------------------=
   JOB DONE.
=------------------------------------------------------------------------------=
